Node Number;X Location (mm);Y Location (mm);Z Location (mm);Normal Stress X (MPa);Normal Stress Y (MPa);Normal Stress Z (MPa);Shear Stress XY (MPa);Shear Stress YZ (MPa);Shear Stress XZ (MPa);Equivalent (von-Mises) Stress (MPa)
1;8500;-11250;10000;-9,12E-02;1,1337;0,12271;0,64648;-0,61452;3,60E-02;1,9169
2;8500;-7250;10000;-8,05E-02;-1,4071;0,15726;0,36828;-0,48132;-0,14403;1,8155
3;8500;-7250;0;0,68354;0,55917;2,5975;5,08E-02;-0,29553;0,26077;2,0954
4;8500;-11250;0;-0,62862;-0,51587;-3,1223;-3,66E-03;-0,36552;-0,16542;2,6449
5;12500;-7250;10000;0,28624;-1,5335;-0,14681;-0,91462;-0,76467;0,11528;2,6485
6;12500;-7250;0;0,70272;0,60751;3,1702;2,27E-02;-0,41921;-0,21541;2,6458
7;12500;-11250;0;-0,76541;-0,62359;-2,7048;-4,90E-02;-0,32756;0,29584;2,1559
8;12500;-11250;10000;6,26E-02;1,1023;-5,37E-02;-0,36552;-0,39949;-7,31E-02;1,453
9;8500;-10250;10000;0,11192;0,88224;-1,75E-02;0,36695;-0,36683;2,74E-03;1,2319
10;8500;-9250;10000;8,24E-02;3,72E-02;-3,90E-02;0,22261;-0,36314;-1,20E-02;0,74566
11;8500;-8250;10000;8,67E-03;-0,81511;-2,63E-02;0,15958;-0,37532;-3,06E-02;1,0737
12;8500;-7250;9000;5,56E-02;-0,53821;0,34207;-7,32E-03;-0,34879;-9,18E-02;0,9976
13;8500;-7250;8000;3,78E-02;-7,60E-02;0,6059;9,67E-03;-0,19103;-4,07E-02;0,71766
14;8500;-7250;7000;3,53E-02;-1,55E-02;0,86777;3,49E-03;-0,15804;-1,97E-02;0,90224
15;8500;-7250;6000;3,97E-02;-1,82E-03;1,1441;4,67E-03;-0,14568;-8,78E-03;1,1538
16;8500;-7250;5000;5,11E-02;1,75E-03;1,4354;7,83E-03;-0,14521;-9,67E-03;1,432
17;8500;-7250;4000;6,21E-02;6,83E-03;1,7241;9,81E-03;-0,142;-1,52E-02;1,7084
18;8500;-7250;3000;8,44E-02;1,17E-02;1,9493;2,16E-02;-0,11656;-9,26E-03;1,9135
19;8500;-7250;2000;0,15506;1,18E-02;2,232;3,32E-02;-9,54E-02;2,85E-02;2,1598
20;8500;-7250;1000;0,32594;6,87E-02;2,593;6,82E-02;-0,14391;0,11292;2,4297
21;8500;-8250;0;0,35156;0,33836;1,2509;3,77E-02;-0,25485;0,17302;1,0535
22;8500;-9250;0;-3,15E-02;-9,86E-02;-0,33906;8,51E-02;-0,23166;1,60E-02;0,51183
23;8500;-10250;0;-0,44791;-0,4689;-1,94;8,58E-02;-0,28465;-0,12576;1,5837
24;8500;-11250;1000;-0,16605;-0,18336;-2,5509;4,19E-02;-0,18453;-2,55E-02;2,3991
25;8500;-11250;2000;-7,63E-02;-5,58E-02;-2,1891;3,61E-02;-0,15824;4,25E-02;2,1429
26;8500;-11250;3000;-7,16E-02;-1,66E-02;-1,9165;2,01E-02;-0,1588;3,06E-02;1,8942
27;8500;-11250;4000;-6,48E-02;-3,33E-02;-1,6968;2,36E-02;-0,18879;4,60E-02;1,6825
28;8500;-11250;5000;-7,19E-02;-3,87E-02;-1,4158;2,67E-02;-0,1779;3,53E-02;1,3974
29;8500;-11250;6000;-6,46E-02;-3,06E-02;-1,1189;1,63E-02;-0,17755;4,56E-02;1,1181
30;8500;-11250;7000;-9,37E-02;-2,81E-02;-0,86795;2,31E-02;-0,18077;7,52E-02;0,87814
31;8500;-11250;8000;-0,16877;-1,66E-02;-0,62306;6,80E-02;-0,18698;0,10961;0,67342
32;8500;-11250;9000;-0,26988;6,52E-02;-0,24355;0,23047;-0,36589;0,11848;0,84096
33;9500;-7250;10000;0,16349;-0,35132;0,24715;0,29854;-0,12979;-0,10442;0,81592
34;10500;-7250;10000;0,29129;-0,14877;0,23654;7,83E-03;-5,32E-02;1,33E-02;0,42636
35;11500;-7250;10000;0,2468;-0,52308;0,21406;-0,28054;-0,22462;0,10567;0,99476
36;12500;-7250;9000;0,33776;-0,10957;0,25985;-0,25775;-0,40659;0,1501;0,96653
37;12500;-7250;8000;0,16665;9,08E-03;0,60871;-3,69E-02;-0,17506;0,1209;0,65557
38;12500;-7250;7000;0,10113;2,34E-02;0,89326;-3,01E-02;-0,16739;8,06E-02;0,89516
39;12500;-7250;6000;6,41E-02;3,47E-02;1,1412;-2,14E-02;-0,1933;4,67E-02;1,1458
40;12500;-7250;5000;4,26E-02;9,78E-03;1,3154;-5,98E-03;-0,16732;1,81E-02;1,3222
41;12500;-7250;4000;7,18E-02;3,26E-03;1,6436;-3,53E-02;-0,19817;1,64E-02;1,6448
42;12500;-7250;3000;8,17E-02;1,38E-02;1,9691;-3,09E-02;-0,12773;7,94E-02;1,9406
43;12500;-7250;2000;8,54E-02;4,72E-02;2,2052;-2,79E-02;-0,17744;4,47E-02;2,1631
44;12500;-7250;1000;0,20158;0,19614;2,5665;-4,02E-02;-0,2031;-4,28E-02;2,3958
45;11500;-7250;0;0,76511;0,59591;2,8367;3,31E-02;-0,4393;-0,17109;2,311
46;10500;-7250;0;0,77302;0,69052;2,8378;1,80E-02;-0,50962;-9,04E-03;2,2849
47;9500;-7250;0;0,65465;0,47078;2,6229;1,68E-02;-0,34071;0,11057;2,1577
48;12500;-8250;0;0,47944;0,48448;1,9466;-9,99E-02;-0,28307;-0,13034;1,5705
49;12500;-9250;0;3,22E-02;0,12064;0,31575;-8,33E-02;-0,21356;3,20E-03;0,46992
50;12500;-10250;0;-0,34283;-0,33107;-1,249;-4,88E-02;-0,27923;0,14421;1,0655
51;11500;-11250;0;-0,74813;-0,5626;-2,8975;-3,92E-02;-0,37524;0,13447;2,3525
52;10500;-11250;0;-0,74482;-0,51678;-2,815;-4,05E-02;-0,37871;-2,32E-02;2,2905
53;9500;-11250;0;-0,69478;-0,4598;-2,7779;-1,80E-02;-0,35095;-0,15073;2,3071
54;11500;-11250;10000;-0,16438;0,30045;-0,18519;-0,26176;-0,11981;-7,77E-02;0,70208
55;10500;-11250;10000;-0,28797;0,15205;-0,225;-1,93E-02;-5,82E-02;2,51E-02;0,42784
56;9500;-11250;10000;-0,17256;0,43643;-0,20049;0,25156;-0,20314;8,26E-02;0,85014
57;12500;-11250;1000;-0,32941;-0,10621;-2,6327;-8,57E-02;-1,00E-01;0,12866;2,4435
58;12500;-11250;2000;-0,11743;3,51E-02;-2,2048;-3,95E-02;-8,32E-02;4,62E-02;2,1751
59;12500;-11250;3000;-0,11191;-6,34E-03;-2,0209;-1,62E-02;-0,12171;3,69E-02;1,9764
60;12500;-11250;4000;-7,20E-02;-1,01E-03;-1,7094;-1,39E-02;-0,11419;-5,82E-04;1,6858
61;12500;-11250;5000;-3,78E-02;1,36E-02;-1,4291;-7,13E-03;-0,15512;-4,15E-03;1,443
62;12500;-11250;6000;-3,84E-02;-1,41E-03;-1,1053;-8,59E-03;-0,15897;-2,23E-02;1,121
63;12500;-11250;7000;-4,24E-02;1,73E-02;-0,92886;-5,79E-03;-0,15497;-3,15E-02;0,95782
64;12500;-11250;8000;-3,27E-02;8,35E-02;-0,61803;-1,59E-03;-0,18566;-4,57E-02;0,73066
65;12500;-11250;9000;-1,81E-02;0,49626;-0,36096;-1,57E-02;-0,33482;-6,08E-02;0,95216
66;12500;-10250;10000;-2,59E-02;0,88905;-3,43E-02;-0,16009;-0,41417;-6,12E-02;1,2032
67;12500;-9250;10000;-0,11571;-2,15E-02;1,45E-02;-0,23591;-0,41499;-2,30E-02;0,83591
68;12500;-8250;10000;-0,13106;-1,0639;-3,61E-02;-0,40162;-0,3752;3,88E-04;1,369
69;8500;-10250;9000;6,62E-03;0,38595;-2,19E-02;0,15484;-0,44401;1,32E-03;0,90492
70;8500;-9250;9000;3,22E-02;4,19E-02;-1,31E-02;0,10955;-0,44201;-1,32E-02;0,79072
71;8500;-8250;9000;4,80E-02;-0,25934;0,11102;4,45E-02;-0,36029;-1,69E-02;0,71696
72;8500;-10250;8000;-1,78E-02;8,75E-02;-0,26624;3,72E-02;-0,30907;7,78E-03;0,62442
73;8500;-9250;8000;8,55E-03;1,72E-02;2,43E-02;6,59E-02;-0,40987;1,17E-03;0,71917
74;8500;-8250;8000;1,02E-02;-5,14E-02;0,3087;3,71E-02;-0,30517;-9,50E-04;0,62833
75;8500;-10250;7000;-2,38E-02;2,18E-02;-0,42172;2,26E-02;-0,29345;7,49E-03;0,66228
76;8500;-9250;7000;-1,14E-02;1,59E-04;1,10E-02;4,15E-02;-0,37476;4,31E-03;0,65341
77;8500;-8250;7000;1,15E-02;-1,54E-02;0,49832;2,83E-02;-0,28505;-9,21E-03;0,70515
78;8500;-10250;6000;1,28E-02;5,44E-03;-0,63768;3,84E-02;-0,28018;3,25E-02;0,81332
79;8500;-9250;6000;-9,00E-03;-1,01E-02;0,11163;3,97E-02;-0,38296;2,01E-02;0,67867
80;8500;-8250;6000;8,41E-03;-2,64E-03;0,65875;1,95E-02;-0,27777;-8,07E-03;0,81428
81;8500;-10250;5000;-2,95E-02;1,02E-03;-0,77567;2,83E-02;-0,2813;4,14E-02;0,90853
82;8500;-9250;5000;-1,94E-03;-1,19E-02;7,44E-02;4,31E-02;-0,35553;4,13E-02;0,62974
83;8500;-8250;5000;6,86E-03;-9,46E-03;0,82605;2,97E-02;-0,28169;-9,61E-04;0,96198
84;8500;-10250;4000;-8,38E-03;1,15E-02;-0,96999;3,57E-02;-0,2849;3,58E-02;1,0933
85;8500;-9250;4000;-1,12E-02;-3,98E-02;4,67E-02;5,29E-02;-0,35006;3,19E-02;0,62039
86;8500;-8250;4000;9,52E-03;-7,15E-03;1,0132;3,44E-02;-0,26442;-1,37E-02;1,1128
87;8500;-10250;3000;-2,10E-02;1,41E-02;-1,0914;4,89E-02;-0,26705;2,99E-02;1,1867
88;8500;-9250;3000;3,99E-03;-3,55E-02;4,04E-02;5,32E-02;-0,35837;4,37E-02;0,63548
89;8500;-8250;3000;2,69E-02;-4,39E-02;1,1319;4,34E-02;-0,25553;7,94E-03;1,2273
90;8500;-10250;2000;-4,08E-02;-2,54E-03;-1,2057;6,93E-02;-0,22275;5,68E-02;1,2554
91;8500;-9250;2000;-5,02E-02;-2,37E-02;-2,71E-02;8,74E-02;-0,3306;3,48E-02;0,59588
92;8500;-8250;2000;5,28E-02;-6,51E-02;1,255;5,37E-02;-0,24286;2,92E-02;1,3376
93;8500;-10250;1000;-9,83E-02;-0,1433;-1,3595;0,10052;-0,18643;2,02E-03;1,2925
94;8500;-9250;1000;5,90E-02;8,24E-02;1,58E-02;0,11053;-0,21176;8,07E-02;0,4406
95;8500;-8250;1000;8,66E-02;6,73E-02;1,4359;7,91E-02;-0,2026;8,78E-02;1,4185
96;9500;-7250;9000;0,12024;-0,11951;0,34246;0,13539;-0,18542;-6,97E-02;0,57692
97;10500;-7250;9000;0,26947;3,15E-03;0,35492;-3,67E-03;-6,38E-02;1,85E-02;0,33807
98;11500;-7250;9000;0,26767;-1,28E-02;0,34109;-1,85E-02;-7,71E-02;9,99E-02;0,3917
99;9500;-7250;8000;8,38E-02;-1,18E-02;0,6234;1,88E-02;-0,11194;-6,17E-02;0,63398
100;10500;-7250;8000;0,1466;3,44E-02;0,58643;-1,05E-02;-0,11971;-8,14E-04;0,54653
101;11500;-7250;8000;0,14757;1,14E-03;0,60145;9,21E-04;-9,23E-02;7,81E-02;0,58119
102;9500;-7250;7000;5,26E-02;1,07E-02;0,90996;1,24E-03;-0,12695;-2,82E-02;0,90746
103;10500;-7250;7000;7,46E-02;1,27E-02;0,88099;1,08E-04;-0,151;1,03E-03;0,87887
104;11500;-7250;7000;8,43E-02;5,04E-03;0,90992;5,13E-03;-0,12015;4,50E-02;0,89601
105;9500;-7250;6000;3,95E-02;-1,67E-03;1,189;-2,37E-03;-0,12208;-1,84E-02;1,1901
106;10500;-7250;6000;5,35E-02;2,23E-02;1,176;-8,86E-03;-0,17634;7,92E-03;1,1788
107;11500;-7250;6000;4,90E-02;1,81E-02;1,1055;7,93E-03;-0,16374;1,30E-02;1,1095
108;9500;-7250;5000;5,38E-02;5,16E-03;1,5038;-6,15E-03;-0,12632;-2,70E-02;1,4918
109;10500;-7250;5000;4,51E-02;5,73E-04;1,4147;-8,17E-03;-0,20043;1,53E-03;1,4351
110;11500;-7250;5000;3,15E-02;1,30E-02;1,4061;1,38E-02;-0,16676;-5,25E-03;1,414
111;9500;-7250;4000;7,31E-02;1,03E-02;1,799;-9,81E-03;-0,13059;-2,29E-02;1,7731
112;10500;-7250;4000;4,58E-02;-3,71E-02;1,6792;-5,53E-03;-0,15847;4,33E-03;1,6987
113;11500;-7250;4000;3,33E-02;-5,21E-03;1,6955;-4,76E-03;-0,15343;7,39E-03;1,7027
114;9500;-7250;3000;8,87E-02;-3,11E-03;2;-2,92E-03;-0,14629;5,45E-03;1,9751
115;10500;-7250;3000;7,70E-02;-2,49E-03;1,9948;8,97E-03;-0,11249;-1,97E-02;1,9688
116;11500;-7250;3000;5,56E-02;-4,60E-02;2,1229;-1,16E-02;-8,42E-02;9,71E-03;2,1251
117;9500;-7250;2000;0,14094;3,82E-03;2,3393;-4,00E-03;-0,11287;1,25E-02;2,2785
118;10500;-7250;2000;0,1775;2,09E-02;2,4007;-1,79E-02;-0,15007;-1,49E-02;2,3205
119;11500;-7250;2000;9,84E-02;5,78E-04;2,3211;6,20E-03;-9,36E-02;-4,47E-03;2,279
120;9500;-7250;1000;0,31723;7,53E-02;2,6209;-4,23E-04;-0,19857;3,92E-02;2,4588
121;10500;-7250;1000;0,42919;0,30291;2,6799;2,83E-02;-0,34838;-9,09E-03;2,3943
122;11500;-7250;1000;0,34658;9,95E-02;2,7618;-1,15E-02;-0,22297;-9,40E-02;2,582
123;9500;-8250;0;0,49316;0,50355;1,6479;4,37E-03;-0,39039;8,69E-02;1,3422
124;10500;-8250;0;0,47172;0,44953;1,8447;-2,12E-03;-0,41069;-4,40E-02;1,5582
125;11500;-8250;0;0,45323;0,44629;1,5767;6,52E-03;-0,32601;-0,14035;1,2838
126;9500;-9250;0;-1,04E-02;-5,22E-02;-9,24E-02;-3,26E-02;-0,33198;4,30E-03;0,58217
127;10500;-9250;0;3,92E-02;4,13E-02;0,18574;2,09E-02;-0,35243;-2,27E-02;0,62979
128;11500;-9250;0;1,74E-02;5,33E-02;9,25E-02;8,46E-03;-0,30488;-4,00E-02;0,53674
129;9500;-10250;0;-0,49111;-0,49142;-1,7255;1,44E-03;-0,35244;-0,13593;1,3969
130;10500;-10250;0;-0,46372;-0,50867;-1,568;2,64E-03;-0,39545;-7,24E-03;1,2811
131;11500;-10250;0;-0,46006;-0,45038;-1,5928;-1,38E-02;-0,38359;6,65E-02;1,3227
132;11500;-11250;9000;-0,15594;0,1083;-0,38304;-9,65E-02;-0,13378;-7,65E-02;0,52973
133;10500;-11250;9000;-0,26038;2,56E-03;-0,33397;-5,74E-03;-7,08E-02;8,21E-03;0,33051
134;9500;-11250;9000;-0,21078;2,27E-02;-0,32789;3,37E-02;-0,10137;7,51E-02;0,3831
135;11500;-11250;8000;-9,37E-02;-6,03E-03;-0,65088;-1,20E-02;-9,29E-02;-4,86E-02;0,63275
136;10500;-11250;8000;-0,16117;-1,55E-02;-0,61059;1,28E-02;-7,90E-02;-2,05E-03;0,55488
137;9500;-11250;8000;-0,13007;1,93E-03;-0,60898;1,14E-02;-0,10297;4,77E-02;0,59076
138;11500;-11250;7000;-5,33E-02;4,09E-03;-0,95682;7,51E-03;-0,12698;-6,40E-03;0,95924
139;10500;-11250;7000;-7,67E-02;5,08E-03;-0,86925;1,36E-02;-0,11043;-3,97E-04;0,85833
140;9500;-11250;7000;-7,70E-02;6,62E-04;-0,8647;-1,25E-03;-0,1249;3,08E-02;0,85868
141;11500;-11250;6000;-3,39E-02;-2,11E-02;-1,1665;1,07E-02;-0,129;-1,79E-02;1,1613
142;10500;-11250;6000;-4,35E-02;-6,03E-03;-1,1755;1,98E-02;-0,1076;1,48E-02;1,1669
143;9500;-11250;6000;-5,88E-02;-6,71E-03;-1,1279;-7,69E-03;-0,12398;4,36E-03;1,1171
144;11500;-11250;5000;-5,75E-02;2,18E-02;-1,5472;-4,63E-03;-0,14435;9,29E-03;1,5513
145;10500;-11250;5000;-5,15E-02;-4,71E-02;-1,4375;-3,03E-03;-9,93E-02;7,08E-03;1,3988
146;9500;-11250;5000;-5,48E-02;-1,37E-02;-1,4583;-5,17E-03;-0,11603;-1,46E-04;1,4386
147;11500;-11250;4000;-6,60E-02;1,32E-02;-1,7202;2,83E-03;-0,11862;1,31E-02;1,7078
148;10500;-11250;4000;-5,69E-02;-2,03E-02;-1,6767;1,15E-02;-0,14745;2,14E-03;1,6583
149;9500;-11250;4000;-5,10E-02;5,84E-03;-1,7317;7,89E-04;-0,14497;2,63E-03;1,7282
150;11500;-11250;3000;-0,11378;3,60E-02;-2,0599;-4,25E-03;-0,12556;-2,53E-03;2,0368
151;10500;-11250;3000;-9,99E-02;4,37E-02;-2,1576;-1,67E-02;-0,14412;-2,14E-03;2,1479
152;9500;-11250;3000;-6,49E-02;-1,46E-02;-2,007;-1,90E-02;-8,88E-02;-1,58E-02;1,9742
153;11500;-11250;2000;-0,14446;4,38E-02;-2,3364;1,83E-02;-0,10902;-5,29E-03;2,2999
154;10500;-11250;2000;-0,11603;5,48E-02;-2,2763;-7,53E-03;-0,11716;-3,48E-02;2,2605
155;9500;-11250;2000;-8,80E-02;3,25E-02;-2,3033;-1,03E-02;-0,12697;-1,02E-02;2,2887
156;11500;-11250;1000;-0,35488;-4,01E-02;-2,7742;-2,50E-02;-0,11368;7,23E-02;2,602
157;10500;-11250;1000;-0,38764;-9,21E-02;-2,7807;4,35E-03;-0,11784;-4,89E-02;2,5633
158;9500;-11250;1000;-0,30978;-0,12171;-2,643;-3,14E-02;-0,18692;-8,64E-02;2,4594
159;11500;-10250;10000;-3,15E-03;0,33336;-3,59E-02;-0,24507;-0,14572;-1,11E-02;0,60794
160;11500;-9250;10000;-6,79E-02;1,82E-02;-9,86E-03;-0,16681;-0,28107;4,23E-04;0,5712
161;11500;-8250;10000;-2,36E-02;-0,23604;9,19E-02;-0,151;-0,15728;1,91E-02;0,47612
162;10500;-10250;10000;3,53E-03;0,16485;-3,80E-02;-8,99E-03;-9,79E-02;3,73E-03;0,25195
163;10500;-9250;10000;7,48E-03;-1,87E-03;-6,89E-03;-1,24E-02;-0,1638;1,21E-02;0,28557
164;10500;-8250;10000;6,76E-04;-0,13785;4,46E-02;-6,35E-03;-8,96E-02;-5,28E-03;0,22692
165;9500;-10250;10000;5,09E-02;0,31561;-5,32E-02;0,17313;-0,15661;2,56E-02;0,5234
166;9500;-9250;10000;5,64E-02;-1,92E-02;-3,65E-03;0,19499;-0,20192;2,00E-03;0,49109
167;9500;-8250;10000;8,60E-03;-0,38141;3,27E-02;0,26421;-0,16937;-2,28E-02;0,67758
168;12500;-8250;9000;6,04E-03;-0,42915;3,24E-02;-0,18864;-0,44834;7,65E-03;0,95473
169;12500;-9250;9000;-4,46E-02;-4,52E-02;2,24E-02;-0,14574;-0,42187;-1,90E-03;0,77601
170;12500;-10250;9000;-3,65E-02;0,2106;-0,1451;-7,99E-02;-0,35366;-2,96E-02;0,70476
171;12500;-8250;8000;5,01E-03;-5,68E-02;0,26185;-1,96E-02;-0,30686;9,71E-03;0,60794
172;12500;-9250;8000;-7,86E-03;-1,36E-02;-2,14E-02;-5,19E-02;-0,42234;1,15E-02;0,73737
173;12500;-10250;8000;-1,69E-02;3,95E-02;-0,32902;-4,16E-02;-0,3291;1,88E-03;0,66955
174;12500;-8250;7000;4,52E-03;-5,93E-03;0,46628;-1,67E-02;-0,27713;8,44E-03;0,67054
175;12500;-9250;7000;-5,02E-03;6,15E-03;2,36E-02;-2,93E-02;-0,38208;1,85E-02;0,66497
176;12500;-10250;7000;-2,05E-02;6,55E-03;-0,51192;-3,03E-02;-0,31101;6,01E-03;0,74066
177;12500;-8250;6000;1,84E-02;3,76E-02;0,62937;-1,97E-02;-0,27341;1,34E-02;0,76671
178;12500;-9250;6000;3,29E-03;1,46E-02;1,15E-02;-2,18E-02;-0,37078;1,22E-02;0,64374
179;12500;-10250;6000;-8,09E-03;3,40E-02;-0,60245;-1,44E-02;-0,29642;1,48E-02;0,80309
180;12500;-8250;5000;-4,04E-03;-6,59E-03;0,78706;-2,91E-02;-0,24603;-6,74E-03;0,90117
181;12500;-9250;5000;8,64E-03;2,32E-02;-0,12051;-5,96E-02;-0,3663;1,20E-02;0,65758
182;12500;-10250;5000;-6,78E-03;4,31E-02;-0,84408;-2,95E-02;-0,28311;-8,08E-03;0,99429
183;12500;-8250;4000;2,37E-02;-3,52E-03;0,93326;-4,82E-02;-0,23072;2,65E-02;1,0108
184;12500;-9250;4000;-1,24E-02;4,20E-02;6,72E-02;-4,19E-02;-0,35886;1,57E-02;0,63032
185;12500;-10250;4000;-3,77E-02;4,44E-02;-1,0443;-4,12E-02;-0,25988;1,76E-02;1,1451
186;12500;-8250;3000;1,46E-02;9,44E-03;1,1203;-6,58E-02;-0,255;2,87E-02;1,1995
187;12500;-9250;3000;3,56E-02;3,07E-02;8,66E-02;-5,74E-02;-0,35006;2,49E-02;0,61825
188;12500;-10250;3000;-4,08E-02;5,72E-02;-1,14;-3,51E-02;-0,28568;2,25E-02;1,2552
189;12500;-8250;2000;4,00E-02;1,35E-02;1,2031;-5,79E-02;-0,25016;6,62E-03;1,2579
190;12500;-9250;2000;5,51E-02;-3,08E-02;-1,88E-02;-9,72E-02;-0,26572;9,84E-03;0,49693
191;12500;-10250;2000;-1,35E-02;1,78E-02;-1,1702;-5,95E-02;-0,26322;2,49E-02;1,2631
192;12500;-8250;1000;8,73E-02;0,10141;1,3271;-9,07E-02;-0,19534;2,12E-03;1,288
193;12500;-9250;1000;-7,49E-02;-4,87E-02;-7,35E-02;-0,11056;-0,23443;7,53E-02;0,4682
194;12500;-10250;1000;-0,10041;-8,56E-02;-1,4133;-8,18E-02;-0,23608;0,13028;1,4077
195;11136;-9297,6;4658,8;-7,02E-03;3,64E-02;-0,1229;3,65E-04;-0,32411;-8,25E-03;0,57939
196;11142;-9063,3;3729,9;1,66E-02;3,12E-02;0,12972;-7,19E-03;-0,33567;-1,87E-02;0,59211
197;11270;-8239,9;4299,3;2,54E-02;4,60E-03;1,017;-7,20E-03;-0,2303;-9,65E-03;1,0788
198;10318;-8691,9;4605,3;1,36E-02;-4,81E-03;0,4875;8,30E-03;-0,289;-7,11E-03;0,6961
199;9840,9;-9072,5;4022,9;1,94E-02;-1,73E-02;0,18958;8,81E-03;-0,31396;-5,06E-03;0,57671
200;9982,1;-9556,2;4740,6;-5,03E-03;1,46E-02;-0,3939;7,14E-03;-0,30896;-1,31E-03;0,66766
201;10465;-9248,6;5542;1,77E-02;2,38E-02;6,93E-02;-2,64E-03;-0,31393;2,40E-03;0,54598
202;10865;-10486;4676,5;-3,19E-02;1,20E-03;-1,0365;-1,01E-02;-0,20784;8,45E-03;1,0834
203;9958,3;-10083;3791,7;-1,79E-02;2,30E-02;-0,92269;-5,61E-03;-0,23194;-3,95E-03;1,0094
204;9179,8;-7941,1;5533,9;1,83E-02;2,50E-03;0,99488;2,92E-03;-0,20279;-1,01E-02;1,0455
205;11777;-9909,3;3580,5;-2,05E-02;4,34E-02;-0,69119;7,82E-03;-0,30092;-2,63E-02;0,87785
206;10798;-10325;3271,1;-4,06E-02;1,11E-02;-1,1787;-1,05E-02;-0,21377;2,00E-02;1,2229
207;11160;-10540;2402,5;-8,62E-02;-1,61E-02;-1,6129;-2,65E-02;-0,176;2,11E-03;1,593
208;9838,5;-10524;2692,7;-6,26E-02;3,71E-02;-1,5219;2,05E-02;-0,21667;-3,43E-03;1,5579
209;10802;-9450,9;2644,5;2,80E-04;-2,21E-02;-0,10867;-6,60E-03;-0,32375;-4,88E-03;0,56972
210;10481;-8267,6;3665,6;4,56E-02;3,10E-02;0,97967;1,58E-02;-0,27174;5,20E-03;1,0529
211;9958,3;-9416,7;2958,3;-1,78E-02;-3,54E-02;-0,11843;7,64E-03;-0,32269;-4,78E-03;0,56683
212;10855;-8832,9;1420,5;3,50E-02;2,00E-02;0,55153;-1,31E-02;-0,32267;-3,96E-03;0,76661
213;11041;-7953;2930,4;5,47E-02;1,97E-02;1,6069;-8,95E-03;-0,20496;1,34E-02;1,6098
214;11758;-8641,7;2347,2;3,74E-02;-8,69E-03;0,77087;-3,07E-02;-0,29396;-1,82E-02;0,91486
215;10074;-9251,6;1654;2,66E-03;-1,42E-02;1,85E-02;1,70E-02;-0,31428;-2,12E-03;0,5459
216;10088;-10419;1945,8;-8,78E-02;-1,69E-02;-1,529;2,48E-02;-0,22617;-1,49E-02;1,5297
217;11674;-9586,6;2368,1;1,72E-02;-1,05E-02;-0,52722;-1,31E-02;-0,34442;-1,42E-02;0,79944
218;10715;-9751,8;1705,4;-8,06E-02;-3,87E-02;-0,81482;-2,80E-02;-0,32292;-9,18E-03;0,94181
219;10199;-8168,1;2349;7,51E-02;-2,63E-03;1,3733;1,43E-03;-0,25754;-6,55E-03;1,4111
220;9217,3;-9659,9;3389,4;2,96E-02;6,42E-03;-0,41011;8,50E-03;-0,33575;1,27E-03;0,72255
221;9242,8;-9815,3;2458,8;-3,49E-02;-1,50E-02;-0,7047;3,15E-02;-0,32646;2,91E-04;0,88604
222;9854,1;-7945,4;5345,6;2,88E-02;2,81E-03;0,99082;9,96E-03;-0,20434;-7,68E-03;1,0377
223;9833,3;-7916,7;4333,3;5,68E-02;1,19E-02;1,258;1,75E-02;-0,20362;-2,00E-02;1,2749
224;11632;-9552,6;5454,1;8,59E-03;3,35E-02;-0,29353;-9,76E-03;-0,33191;-6,97E-03;0,65601
225;11792;-8789;4908,6;-1,99E-02;-2,65E-03;0,4012;-2,34E-02;-0,34185;-1,26E-02;0,72323
226;11723;-8604,9;6300,3;7,15E-03;1,71E-02;0,36334;-1,08E-02;-0,29212;-1,22E-02;0,61663
227;11162;-10502;6291,7;-2,71E-02;-1,71E-02;-0,78103;-2,78E-04;-0,20931;-1,26E-03;0,8411
228;11967;-10660;6537;-2,78E-02;-1,40E-02;-0,76031;-2,38E-03;-0,21768;-1,09E-02;0,83028
229;11689;-9369,2;6737,7;5,56E-03;2,31E-02;-0,12835;-7,01E-03;-0,32702;-6,72E-05;0,58444
230;11833;-9916,7;4666,7;3,65E-03;5,43E-02;-0,55907;-1,79E-02;-0,30335;-4,96E-03;0,79046
231;11899;-10561;5423,9;-1,41E-02;2,14E-02;-1,0082;6,92E-03;-0,23215;-2,09E-02;1,09
232;10007;-7980,9;1525,5;0,20276;4,00E-02;1,9574;2,01E-02;-0,24413;1,15E-02;1,8898
233;9169,6;-7909;1687;9,01E-02;-4,44E-02;1,8375;1,06E-02;-0,21385;-1,81E-03;1,8559
234;10833;-7916,7;1333,3;0,19312;6,33E-02;1,9227;-2,38E-02;-0,23789;-1,37E-02;1,8453
235;9909,6;-8135,5;708,34;0,3022;0,26667;1,5504;-1,82E-02;-0,30372;5,90E-02;1,3754
236;9252,2;-8937,4;1335,9;9,21E-03;2,93E-02;0,5179;1,27E-02;-0,30099;-9,81E-04;0,72197
237;9161,8;-7887,8;771,85;0,29005;0,20809;2,0058;1,18E-02;-0,23646;9,11E-02;1,8122
238;9224,5;-9474,1;5746;1,03E-02;-4,47E-03;-0,16826;1,79E-02;-0,33701;-2,43E-02;0,61068
239;9216,9;-8603,9;5666,9;7,53E-03;-6,86E-03;0,47222;7,93E-03;-0,29682;-1,66E-02;0,69869
240;9219,2;-8657,1;4678,1;4,52E-03;-1,79E-02;0,47625;1,35E-02;-0,31342;-1,36E-02;0,7276
241;9166,7;-10583;5333,3;-2,28E-02;-5,64E-03;-0,96038;2,87E-04;-0,20038;-2,51E-02;1,0089
242;9951,8;-10372;5722,9;-5,94E-03;1,76E-02;-0,7501;-4,90E-03;-0,21598;-7,43E-04;0,8437
243;9166,7;-9916,7;4333,3;-2,25E-03;7,11E-03;-0,59354;-4,07E-03;-0,3124;-1,18E-02;0,8053
244;9145,8;-10555;3354,2;-6,99E-03;3,21E-02;-1,3421;-3,07E-03;-0,19222;-2,67E-03;1,3954
245;9179,8;-10559;2466,1;-6,17E-02;1,51E-02;-1,7394;2,65E-02;-0,17869;-8,31E-03;1,7457
246;9166,7;-8583,3;2666,7;1,51E-02;-4,35E-02;0,69645;1,29E-02;-0,3;-3,60E-03;0,88213
247;9833,3;-7916,7;3333,3;4,73E-02;6,22E-03;1,3344;9,30E-03;-0,22318;-2,17E-02;1,3646
248;9166,7;-8583,3;3666,7;2,64E-02;-7,15E-03;0,70933;3,97E-03;-0,30878;-6,55E-03;0,88127
249;10251;-10355;8456,8;-7,20E-02;-1,74E-02;-0,23486;8,58E-03;-0,18216;5,51E-03;0,37183
250;9166,7;-9583,3;8666,7;9,99E-03;2,62E-02;-5,93E-02;7,74E-02;-0,35722;-1,26E-02;0,63833
251;9811,2;-9171,5;8212,9;1,02E-03;3,32E-03;-2,06E-03;3,21E-02;-0,31184;-6,51E-03;0,54311
252;9853,6;-10527;7677;-6,12E-02;-8,19E-03;-0,49;1,78E-02;-0,18736;9,60E-03;0,56209
253;11484;-9616,2;8511,4;-5,36E-03;3,36E-03;-5,60E-02;-5,50E-02;-0,32715;4,19E-03;0,57731
254;11833;-8583,3;8333,3;-1,22E-02;3,60E-03;0,15624;-4,51E-02;-0,32505;-1,84E-02;0,59165
255;9196,2;-9686,7;1546,2;-7,20E-02;-3,56E-02;-0,7995;7,33E-02;-0,30554;-1,13E-02;0,92393
256;9166,7;-10583;1666,7;-7,08E-02;-3,46E-02;-1,7771;1,32E-02;-0,19547;-2,39E-02;1,7583
257;9856,9;-9937,2;933,83;-0,14126;-0,19133;-1,1295;1,12E-02;-0,2749;-1,83E-02;1,0759
258;9073,6;-9832,1;486,22;-0,10288;-0,16554;-0,73401;3,37E-02;-0,22521;-5,39E-02;0,72594
259;11746;-8224,6;3369,6;2,43E-02;1,32E-02;1,0191;-2,29E-02;-0,23995;-6,93E-03;1,0841
260;11806;-9392,7;1359;3,43E-02;1,63E-03;-2,03E-02;-5,49E-02;-0,30532;-5,11E-03;0,5395
261;11810;-10572;1484,1;-6,55E-02;-1,08E-02;-1,746;-9,19E-03;-0,162;-6,27E-03;1,7315
262;11732;-9659,9;760,54;-0,10626;-7,08E-02;-0,67855;-1,97E-02;-0,25841;2,13E-02;0,7429
263;11096;-10635;9389,7;-0,11844;7,96E-02;-0,17222;-4,27E-02;-8,57E-02;-6,30E-03;0,28354
264;11241;-8600,5;662,5;0,15174;0,13862;0,9724;1,55E-03;-0,27108;-7,39E-02;0,95982
265;10991;-8275,4;5361,2;2,08E-02;3,04E-03;0,74567;-1,24E-02;-0,24334;6,66E-03;0,84668
266;12218;-8013,5;4776,3;-1,81E-02;-2,41E-02;1,0076;1,69E-02;-0,14576;-4,20E-02;1,0622
267;10872;-9822,4;713,43;-0,18656;-0,19339;-0,80543;-6,65E-03;-0,27363;-2,82E-02;0,77843
268;9166,7;-10583;8333,3;-4,51E-02;5,92E-02;-0,25556;4,47E-02;-0,20171;1,01E-02;0,4533
269;11819;-7934,2;1489,6;7,34E-02;5,93E-02;1,7443;-1,38E-02;-0,24395;-2,32E-02;1,731
270;10796;-9628,4;7566,5;-1,07E-02;-1,93E-02;-0,13294;-4,37E-03;-0,29962;-8,50E-03;0,5325
271;9245,6;-9926,3;7437,4;6,82E-04;9,12E-03;-0,25414;1,86E-02;-0,32519;-1,02E-02;0,62109
272;9790,4;-9176,6;6571,4;6,79E-04;-5,31E-04;-1,44E-02;1,05E-02;-0,3258;-1,18E-02;0,56514
273;9187,2;-8563,3;8685,4;4,94E-03;-5,41E-02;0,11599;7,90E-02;-0,31403;6,89E-04;0,58047
274;10378;-8612,1;9254;-5,27E-03;-1,88E-02;4,20E-02;1,35E-02;-0,21819;5,56E-03;0,38278
275;9833,3;-7916,7;8333,3;8,95E-02;5,48E-02;0,35969;1,49E-02;-0,15838;-2,95E-02;0,40263
276;9221,8;-8576,8;7658;9,06E-03;1,10E-02;0,25132;2,43E-02;-0,30864;-6,70E-03;0,58814
277;11830;-9887,8;7299,7;-1,10E-02;-2,56E-03;-0,30281;-1,24E-02;-0,34482;7,46E-03;0,66709
278;11833;-8583,3;7333,3;-3,36E-03;6,46E-03;0,24207;-1,78E-02;-0,32248;-1,33E-02;0,60941
279;10916;-9515,4;6499;-2,63E-03;2,21E-03;-0,2128;-1,21E-02;-0,29354;-3,12E-03;0,55152
280;11189;-10559;7379,9;-4,89E-02;-4,09E-02;-0,54207;-8,87E-03;-0,19055;-2,06E-03;0,59702
281;10442;-10384;6875;-2,99E-02;-3,16E-03;-0,63327;7,53E-03;-0,20733;-3,64E-03;0,71419
282;10833;-9916,7;9333,3;1,37E-02;4,48E-02;-4,73E-02;-5,43E-02;-0,18363;2,02E-02;0,34321
283;11173;-10575;8624,1;-9,48E-02;-6,38E-02;-0,33953;-1,73E-02;-0,14236;-1,61E-02;0,36182
284;11894;-10740;616,33;-0,43008;-0,35954;-2,319;-2,33E-02;-0,25969;0,14565;1,9935
285;10501;-8718,5;7863,8;3,23E-02;4,69E-02;0,23228;-5,82E-03;-0,25323;-9,47E-03;0,47962
286;9833,3;-9916,7;9333,3;2,03E-02;5,68E-02;-3,30E-02;9,19E-02;-0,2099;-1,11E-03;0,40453
287;11125;-10557;1318,4;-0,21235;-0,11388;-1,7761;-1,99E-02;-0,20937;7,33E-03;1,6559
288;10965;-10785;549,67;-0,54952;-0,4306;-2,4248;-3,87E-02;-0,30378;2,88E-02;2,0094
289;9833,3;-10583;4666,7;-3,03E-02;-3,86E-03;-1,2084;3,96E-03;-0,19508;9,34E-03;1,2386
290;10498;-8477,9;6756,3;1,95E-02;1,50E-02;0,36733;2,41E-04;-0,25938;-2,54E-03;0,56957
291;11805;-8604,2;9354,2;-8,92E-02;-0,2139;3,58E-02;-0,14989;-0,33439;-1,25E-02;0,67089
292;9145,8;-10555;4354,2;-3,61E-02;9,53E-03;-1,322;3,30E-03;-0,1881;-1,82E-02;1,3497
293;11835;-10217;9385,4;-2,24E-02;0,33468;-9,43E-02;-0,17194;-0,28952;-2,82E-02;0,70775
294;11826;-10613;8363,4;-2,85E-02;3,31E-02;-0,37477;-3,89E-02;-0,2039;-2,86E-02;0,52607
295;11806;-10604;7352,1;-4,15E-02;-1,57E-02;-0,67594;-1,54E-02;-0,20519;-1,63E-02;0,73984
296;9197,8;-9894,5;9354,2;6,16E-02;0,16639;-3,59E-02;0,19464;-0,34244;-1,35E-02;0,70477
297;11823;-7943,4;5401,3;-3,50E-03;4,16E-03;0,96121;1,17E-02;-0,19775;-7,55E-03;1,0204
298;9152,9;-10611;7541,7;-5,90E-02;1,55E-02;-0,60699;8,62E-03;-0,17753;2,34E-02;0,66564
299;9207,2;-10556;6436,6;-1,66E-02;6,80E-03;-0,70086;4,64E-03;-0,20964;1,50E-03;0,7853
300;9966,3;-10662;603,02;-0,39316;-0,32731;-2,0364;-1,17E-03;-0,31029;-5,39E-02;1,7636
301;9122,7;-10651;708,53;-0,34812;-0,27934;-2,1787;1,98E-02;-0,26866;-0,11742;1,9341
302;11895;-10582;2355,4;-6,03E-02;1,24E-02;-1,6744;1,95E-02;-0,1891;-2,83E-02;1,6848
303;9016;-8722,8;599,19;0,15134;0,16416;0,74039;1,55E-02;-0,21247;8,61E-02;0,70568
304;11820;-7941,1;7466,1;3,51E-02;4,28E-04;0,55384;4,74E-03;-0,17931;1,22E-02;0,62069
305;12016;-7809,5;6464,5;2,97E-02;1,71E-02;0,79937;5,76E-03;-0,17635;5,45E-03;0,83412
306;11167;-7916,7;7666,7;5,95E-02;1,60E-02;0,50991;-5,77E-03;-0,17609;1,20E-02;0,56386
307;11089;-7908,6;6675,5;4,96E-02;2,11E-02;0,7644;-4,05E-03;-0,17269;8,94E-03;0,7886
308;11819;-7934,2;8489,6;5,53E-02;-8,39E-02;0,28789;-5,81E-03;-0,18798;3,21E-02;0,46375
309;10016;-10621;9411,4;-8,74E-02;0,10934;-0,13232;1,89E-02;-8,87E-02;2,36E-02;0,2755
310;9165;-10599;9395,6;-2,51E-02;0,41018;-7,74E-02;0,22864;-0,28445;2,81E-02;0,78545
311;9005,9;-7747,9;8510,7;4,61E-02;-4,37E-02;0,37978;5,43E-02;-0,21802;-2,86E-02;0,55069
312;9184,2;-7930,7;7489,6;3,11E-02;1,01E-02;0,58287;1,53E-02;-0,19534;-2,11E-02;0,65801
313;9184,2;-8760,4;9319,3;2,32E-02;-0,17217;-1,08E-02;0,16601;-0,30306;-4,74E-03;0,62527
314;9843,8;-7934,2;9319,3;0,1006;-6,50E-02;0,1482;7,46E-02;-0,11409;-1,53E-02;0,30669
315;8978,1;-7913,7;9420,8;1,42E-02;-0,53652;0,10503;0,21747;-0,30993;-4,19E-02;0,89267
316;9219,8;-8579,3;6670,5;5,73E-03;-8,04E-04;0,39998;1,48E-02;-0,31287;-1,52E-02;0,6731
317;11845;-10668;3520,2;-8,00E-02;-6,77E-04;-1,5542;-1,72E-03;-0,13656;2,90E-03;1,5338
318;11855;-10573;4616,6;-4,16E-02;2,09E-02;-1,278;-1,24E-04;-0,20558;-5,05E-03;1,3178
319;11013;-7823,9;520,88;0,55447;0,49086;2,391;4,41E-02;-0,36225;-0,13695;1,9874
320;11843;-7891,6;4327,8;4,41E-02;-1,44E-02;1,3619;4,28E-03;-0,15492;-1,34E-02;1,3747
321;9179,8;-7941,1;4533,9;3,09E-02;3,95E-03;1,2584;-2,78E-03;-0,20656;-2,49E-02;1,2924
322;9179,8;-7941,1;6533,9;2,20E-02;9,33E-03;0,79086;1,52E-03;-0,19261;-1,46E-02;0,8444
323;11927;-7833,4;524,38;0,39656;0,32859;2,1994;-2,29E-02;-0,26865;-0,13431;1,9104
324;11986;-7786,6;2504,8;2,64E-02;1,70E-02;1,7417;2,49E-03;-0,15682;1,62E-02;1,7416
325;11958;-8712,9;461,26;9,68E-02;0,12781;0,67531;-3,84E-02;-0,22282;-6,29E-02;0,69492
326;11042;-7708,3;9444,4;0,15001;-0,11009;0,15903;-3,79E-02;-5,69E-02;4,27E-02;0,29928
327;9833,3;-7916,7;7333,3;5,06E-02;2,51E-02;0,60324;6,36E-03;-0,16488;-1,36E-02;0,63436
328;9145,8;-7944,7;2645,8;7,74E-02;-4,54E-02;1,6991;1,92E-02;-0,19075;-1,35E-02;1,719
329;12000;-7750;9500;7,36E-02;-0,53997;6,15E-02;-0,25738;-0,29376;4,46E-02;0,91256
330;11167;-7916,7;8666,7;9,19E-02;-1,79E-02;0,24083;-2,83E-02;-0,14183;1,95E-02;0,33838
331;9997,6;-8024,1;6219,6;2,39E-02;2,07E-02;0,76019;5,52E-03;-0,19844;-1,20E-03;0,81409
332;9179,8;-7941,1;3533,9;3,69E-02;-3,93E-03;1,4444;1,32E-03;-0,21381;-2,31E-02;1,4761
