********************************************************************************
Field Output Report, written Tue Sep 20 20:46:01 2016

Source 1
---------

   ODB: main model - 3/Job-1.odb
   Step: Step-1
   Frame: Increment      1: Step Time =    1.000

Loc 1 : Integration point values at shell < MATERIAL-1 > < 5 section points > from source 1 : SNEG, (fraction = -1.0)
Loc 2 : Integration point values at shell < MATERIAL-1 > < 5 section points > from source 1 : SPOS, (fraction = 1.0)

Output sorted by column "Element Label".

Field Output reported at integration points for region: BEAM-1.Region_1

         Element             Int           S.S11           S.S11           S.S22           S.S22           S.S12           S.S12
           Label              Pt          @Loc 1          @Loc 2          @Loc 1          @Loc 2          @Loc 1          @Loc 2
---------------------------------------------------------------------------------------------------------------------------------
              65               1        -7.28771        -8.16077        -1.04887        -1.36925    -264.397E-03    -962.466E-03
              65               2        -6.94093        -8.50755    -695.971E-03        -1.72215    -294.997E-03    -931.866E-03
              65               3        -7.34293        -8.10555    -967.743E-03        -1.45037    -168.680E-03        -1.05818
              66               1     120.868E-03     54.2024E-03    -30.4120E-03     82.9331E-03         1.94680         1.69785
              66               2     180.068E-03    -4.99813E-03    -212.669E-03     265.190E-03         2.04563         1.59902
              66               3     403.237E-03    -228.167E-03     54.2987E-03    -1.77766E-03         1.86987         1.77478
              67               1        -6.28414        -6.85095    -810.110E-03        -1.05488    -43.9451E-03        -1.23067
              67               2        -6.28874        -6.84635    -729.417E-03        -1.13558    -56.2422E-03        -1.21837
              67               3        -6.27674        -6.85835    -678.880E-03        -1.18611    -12.3786E-03        -1.26224
              68               1     167.852E-03     343.298E-03         1.21296         1.15681         2.22506         1.31444
              68               2     308.829E-03     202.320E-03         1.18884         1.18093         2.26032         1.27918
              68               3     236.386E-03     274.763E-03         1.13583         1.23394         2.19952         1.33998
              69               1        -5.32513        -5.82471    -666.892E-03    -884.424E-03     290.017E-03        -1.19481
              69               2        -5.34935        -5.80049    -573.344E-03    -977.972E-03     272.764E-03        -1.17755
              69               3        -5.32030        -5.82955    -501.247E-03        -1.05007     328.791E-03        -1.23358
              70               1     275.581E-03     254.546E-03         1.27472     959.849E-03         2.27778     981.315E-03
              70               2     329.197E-03     200.930E-03         1.20759         1.02699         2.29916     959.932E-03
              70               3     294.143E-03     235.984E-03         1.15128         1.08329         2.24577         1.01332
              71               1        -4.38494        -4.75187    -546.679E-03    -685.854E-03     618.003E-03        -1.13959
              71               2        -4.36489        -4.77193    -437.363E-03    -795.170E-03     605.530E-03        -1.12711
              71               3        -4.36965        -4.76716    -387.613E-03    -844.921E-03     657.734E-03        -1.17932
              72               1     267.261E-03     201.668E-03         1.16009     774.221E-03         2.26553     651.663E-03
              72               2     291.338E-03     177.591E-03         1.05916     875.155E-03         2.28601     631.187E-03
              72               3     271.635E-03     197.294E-03     997.212E-03     937.103E-03         2.22393     693.262E-03
              73               1        -3.51622        -3.58510    -466.174E-03    -428.875E-03     900.429E-03        -1.03372
              73               2        -3.40817        -3.69315    -344.587E-03    -550.462E-03     902.703E-03        -1.03600
              73               3        -3.47062        -3.63069    -333.903E-03    -561.146E-03     934.726E-03        -1.06802
              74               1     224.159E-03     149.678E-03     971.886E-03     648.777E-03         2.21329     343.264E-03
              74               2     219.015E-03     154.821E-03     863.228E-03     757.435E-03         2.23006     326.494E-03
              74               3     221.146E-03     152.691E-03     816.503E-03     804.160E-03         2.17209     384.463E-03
              75               1        -2.76052        -2.26874    -473.937E-03    -80.3798E-03         1.09365    -811.786E-03
              75               2        -2.50492        -2.52434    -337.357E-03    -216.959E-03         1.11777    -835.909E-03
              75               3        -2.68149        -2.34776    -419.606E-03    -134.711E-03         1.11669    -834.825E-03
              76               1     158.388E-03     90.7694E-03     729.980E-03     580.114E-03         2.10563     99.3015E-03
              76               2     103.925E-03     145.232E-03     609.756E-03     700.339E-03         2.11924     85.6896E-03
              76               3     158.183E-03     90.9750E-03     611.325E-03     698.769E-03         2.06567     139.257E-03
              77               1        -1.97312    -882.801E-03    -645.433E-03     172.300E-03         1.13778    -429.941E-03
              77               2        -1.61379        -1.24213    -594.368E-03     121.235E-03         1.17741    -469.573E-03
              77               3        -1.94277    -913.159E-03    -887.722E-03     414.589E-03         1.11595    -408.119E-03
              78               1     32.5917E-03     53.4685E-03     356.770E-03     623.509E-03         1.92883    -37.6220E-03
              78               2     59.8114E-03     26.2488E-03     280.661E-03     699.618E-03         1.96498    -73.7715E-03
              78               3     125.780E-03    -39.7197E-03     354.102E-03     626.177E-03         1.89642    -5.20859E-03
              79               1    -212.656E-03    -534.104E-03    -452.826E-03    -293.710E-03         1.01150    -265.018E-03
              79               2    -862.593E-03     115.833E-03    -895.240E-03     148.705E-03     796.757E-03    -50.2796E-03
              79               3        -1.18695     440.191E-03        -1.83941         1.09287     916.329E-03    -169.852E-03
              80               1     80.4533E-03     345.844E-03    -403.648E-03     915.182E-03         1.55621    -155.201E-03
              80               2    -84.5045E-03     510.802E-03    -627.151E-03         1.13868         1.65266    -251.648E-03
              80               3     438.892E-03    -12.5950E-03    -44.7196E-03     556.253E-03         1.48928    -88.2725E-03
              81               1     103.814E-03    -768.271E-03     249.185E-03        -3.37350         1.03438    -268.872E-03
              81               2    -34.7168E-03    -629.740E-03    -538.942E-03        -2.58537         1.08243    -316.919E-03
              81               3    -201.062E-03    -463.394E-03        -1.18348        -1.94084     747.243E-03     18.2695E-03
              82               1     748.398E-03     17.2401E-03     802.190E-03    -788.508E-03         1.75372     241.660E-03
              82               2     804.218E-03    -38.5805E-03     177.246E-03    -163.564E-03         1.60110     394.280E-03
              82               3     567.266E-03     198.372E-03     502.974E-03    -489.292E-03         1.50752     487.859E-03
              83               1     162.065E-03    -461.874E-03     559.327E-03    -865.279E-03         1.08335    -603.514E-03
              83               2    -39.8944E-03    -259.915E-03     52.9719E-03    -358.924E-03         1.12178    -641.936E-03
              83               3     60.2943E-03    -360.103E-03    -112.894E-03    -193.058E-03     911.905E-03    -432.065E-03
              84               1         1.79284         1.44778     563.556E-03     133.755E-03         1.81625    -113.105E-03
              84               2         1.80573         1.43488     383.233E-03     314.079E-03         1.73278    -29.6369E-03
              84               3         2.00460         1.23601     659.912E-03     37.4000E-03         1.70701    -3.87191E-03
              85               1    -93.1716E-03    -155.545E-03    -63.6847E-03    -285.802E-03         1.09283    -868.366E-03
              85               2    -122.898E-03    -125.818E-03    -224.093E-03    -125.394E-03         1.11921    -894.747E-03
              85               3    -78.5176E-03    -170.199E-03    -243.480E-03    -106.007E-03         1.03457    -810.100E-03
              86               1         2.52557         2.64250     418.331E-03     598.998E-03         2.02321     27.6109E-03
              86               2         2.52104         2.64703     447.511E-03     569.819E-03         2.00624     44.5824E-03
              86               3         2.69532         2.47276     543.919E-03     473.411E-03         2.01135     39.4743E-03
              87               1    -169.422E-03    -129.799E-03    -414.935E-03    -207.924E-03     940.275E-03        -1.02330
              87               2    -199.473E-03    -99.7471E-03    -423.594E-03    -199.265E-03     940.731E-03        -1.02376
              87               3    -158.052E-03    -141.168E-03    -380.987E-03    -241.872E-03     940.412E-03        -1.02344
              88               1         3.37412         3.76154     438.072E-03     894.418E-03         2.13471     310.403E-03
              88               2         3.36316         3.77251     556.449E-03     776.042E-03         2.15237     292.741E-03
              88               3         3.48294         3.65273     546.462E-03     786.029E-03         2.17025     274.866E-03
              89               1    -230.883E-03    -157.940E-03    -646.591E-03    -278.264E-03     676.247E-03        -1.09379
              89               2    -268.773E-03    -120.050E-03    -591.701E-03    -333.154E-03     663.707E-03        -1.08125
              89               3    -226.600E-03    -162.222E-03    -523.641E-03    -401.214E-03     701.730E-03        -1.11928
              90               1         4.31866         4.84428     542.392E-03         1.12700         2.19541     657.126E-03
              90               2         4.31342         4.84952     708.960E-03     960.436E-03         2.22983     622.706E-03
              90               3         4.39333         4.76961     643.439E-03         1.02596         2.25106     601.473E-03
              91               1    -296.285E-03    -213.704E-03    -833.308E-03    -399.175E-03     356.818E-03        -1.11351
              91               2    -342.723E-03    -167.266E-03    -742.245E-03    -490.237E-03     334.586E-03        -1.09127
              91               3    -304.374E-03    -205.615E-03    -667.596E-03    -564.887E-03     397.200E-03        -1.15389
              92               1         5.35364         5.90479     717.713E-03         1.30901         2.24814         1.04107
              92               2         5.35091         5.90752     901.389E-03         1.12533         2.29167     997.538E-03
              92               3         5.39472         5.86371     801.361E-03         1.22536         2.31392     975.293E-03
              93               1    -357.660E-03    -307.203E-03    -978.176E-03    -572.092E-03     10.8095E-03        -1.09677
              93               2    -479.709E-03    -185.154E-03    -890.960E-03    -659.308E-03    -29.8401E-03        -1.05612
              93               3    -412.978E-03    -251.884E-03    -810.275E-03    -739.993E-03     58.4364E-03        -1.14439
              94               1         6.45056         7.01069     940.087E-03         1.40267         2.32413         1.44122
              94               2         6.41124         7.05001         1.04759         1.29517         2.35922         1.40613
              94               3         6.46905         6.99219     973.705E-03         1.36905         2.38675         1.37860
              95               1    -165.652E-03    -218.272E-03    -987.714E-03    -823.080E-03    -524.255E-03        -1.19661
              95               2    -225.104E-03    -158.820E-03    -806.294E-03        -1.00450    -599.848E-03        -1.12102
              95               3    -342.303E-03    -41.6212E-03    -921.407E-03    -889.387E-03    -447.618E-03        -1.27325
              96               1         7.36164         8.14348         2.16196         2.48958         2.27915         2.01766
              96               2         6.88581         8.61931         2.01921         2.63233         2.33284         1.96396
              96               3         7.48463         8.02049         2.05925         2.59229         2.49939         1.79742


  Minimum                               -7.34293        -8.50755        -1.83941         -3.3735    -599.848E-03        -1.27325
      At Element                              65              65              79              81              95              95

          Int Pt                               3               2               3               1               2               3
  Maximum                                7.48463         8.61931         2.16196         2.63233         2.49939         2.01766
      At Element                              96              96              96              96              96              96

          Int Pt                               3               2               1               2               3               1


Field Output reported at integration points for region: BEAM-1.Region_2

         Element             Int           S.S11           S.S11           S.S22           S.S22           S.S12           S.S12
           Label              Pt          @Loc 1          @Loc 2          @Loc 1          @Loc 2          @Loc 1          @Loc 2
---------------------------------------------------------------------------------------------------------------------------------
               1               1    -246.975E-03     38.3493E-03        -1.18058     188.066E-03     208.419E-03        -1.43578
               1               2    -401.257E-03     192.630E-03        -1.34259     350.075E-03     290.096E-03        -1.51746
               1               3     84.9416E-03    -293.568E-03    -782.055E-03    -210.458E-03     163.909E-03        -1.39127
               2               1     889.160E-03     594.971E-03        -1.88686        -1.74957    -124.800E-03        -1.35864
               2               2     239.023E-03         1.24511        -2.33814        -1.29829    -325.791E-03        -1.15765
               2               3    -28.9058E-03         1.51304        -3.20516    -431.267E-03    -223.355E-03        -1.26009
               3               1    -151.551E-03    -127.263E-03    -649.530E-03    -354.691E-03     96.7367E-03        -1.86231
               3               2    -134.265E-03    -144.549E-03    -730.493E-03    -273.728E-03     132.840E-03        -1.89841
               3               3    -57.0130E-03    -221.801E-03    -647.301E-03    -356.920E-03     63.6025E-03        -1.82917
               4               1         1.06619         2.18006    -374.919E-03     418.871E-03     506.727E-03        -1.04104
               4               2         1.42165         1.82461    -344.675E-03     388.626E-03     545.230E-03        -1.07954
               4               3         1.07765         2.16861    -670.432E-03     714.383E-03     477.345E-03        -1.01166
               5               1    -131.159E-03    -199.857E-03    -575.461E-03    -719.458E-03    -76.1886E-03        -2.08610
               5               2    -188.607E-03    -142.410E-03    -698.951E-03    -595.968E-03    -62.1582E-03        -2.10013
               5               3    -130.353E-03    -200.663E-03    -694.372E-03    -600.547E-03    -117.056E-03        -2.04523
               6               1         2.32571         2.84771     107.437E-03     524.014E-03     868.815E-03        -1.03050
               6               2         2.59054         2.58288     246.631E-03     384.820E-03     893.759E-03        -1.05544
               6               3         2.40560         2.76783     157.535E-03     473.915E-03     891.794E-03        -1.05348
               7               1    -164.259E-03    -240.019E-03    -644.262E-03    -968.234E-03    -332.772E-03        -2.20898
               7               2    -170.939E-03    -233.339E-03    -754.503E-03    -857.992E-03    -316.000E-03        -2.22575
               7               3    -167.654E-03    -236.623E-03    -800.935E-03    -811.561E-03    -374.402E-03        -2.16735
               8               1         3.60440         3.54874     451.751E-03     498.576E-03         1.06021    -877.278E-03
               8               2         3.71792         3.43522     575.794E-03     374.533E-03         1.06319    -880.256E-03
               8               3         3.65219         3.50095     585.241E-03     365.086E-03         1.09482    -911.888E-03
               9               1    -206.558E-03    -272.800E-03    -771.366E-03        -1.15961    -645.996E-03        -2.26560
               9               2    -182.816E-03    -296.542E-03    -873.361E-03        -1.05762    -625.419E-03        -2.28617
               9               3    -202.353E-03    -277.005E-03    -935.681E-03    -995.296E-03    -687.964E-03        -2.22363
              10               1         4.76022         4.39509     696.342E-03     559.039E-03         1.15194    -611.713E-03
              10               2         4.78228         4.37303     807.117E-03     448.265E-03         1.13966    -599.437E-03
              10               3         4.77647         4.37885     856.869E-03     398.512E-03         1.19200    -651.773E-03
              11               1    -254.010E-03    -280.258E-03    -955.182E-03        -1.27797    -978.284E-03        -2.27832
              11               2    -202.405E-03    -331.863E-03        -1.02530        -1.20785    -956.850E-03        -2.29975
              11               3    -236.411E-03    -297.856E-03        -1.08229        -1.15087        -1.01121        -2.24539
              12               1         5.82952         5.32636     889.126E-03     670.467E-03         1.20069    -288.817E-03
              12               2         5.80655         5.34932     984.434E-03     575.159E-03         1.18331    -271.437E-03
              12               3         5.83445         5.32143         1.05618     503.411E-03         1.23999    -328.123E-03
              13               1    -346.268E-03    -168.435E-03        -1.15331        -1.21661        -1.31417        -2.22460
              13               2    -201.928E-03    -312.775E-03        -1.17787        -1.19206        -1.27815        -2.26062
              13               3    -276.351E-03    -238.352E-03        -1.23244        -1.13749        -1.34027        -2.19850
              14               1         6.85521         6.28086         1.05760     810.342E-03         1.23282     44.5833E-03
              14               2         6.84935         6.28672         1.13984     728.106E-03         1.22010     57.3025E-03
              14               3         6.86251         6.27356         1.19218     675.769E-03         1.26513     12.2775E-03
              15               1    -54.9706E-03    -125.108E-03    -82.5661E-03     28.5427E-03        -1.69873        -1.94440
              15               2     689.936E-06    -180.768E-03    -264.093E-03     210.069E-03        -1.60132        -2.04181
              15               3     223.364E-03    -403.442E-03     934.126E-06    -54.9576E-03        -1.77497        -1.86816
              16               1         8.16107         7.28525         1.37079         1.04759     962.950E-03     266.674E-03
              16               2         8.50415         6.94217         1.72199     696.386E-03     932.425E-03     297.199E-03
              16               3         8.10686         7.33947         1.45463     963.746E-03         1.05844     171.183E-03


  Minimum                           -401.257E-03    -403.442E-03        -3.20516        -1.74957        -1.77497        -2.29975
      At Element                               1              15               2               2              15              11

          Int Pt                               2               3               3               1               3               2
  Maximum                                8.50415         7.33947         1.72199         1.04759         1.26513     297.199E-03
      At Element                              16              16              16              16              14              16

          Int Pt                               2               3               2               1               3               2


Field Output reported at integration points for region: BEAM-1.Region_3

         Element             Int           S.S11           S.S11           S.S22           S.S22           S.S12           S.S12
           Label              Pt          @Loc 1          @Loc 2          @Loc 1          @Loc 2          @Loc 1          @Loc 2
---------------------------------------------------------------------------------------------------------------------------------
              17               1    -718.130E-03    -358.191E-03    -715.278E-03     261.628E-03         1.05849     61.2427E-03
              17               2    -979.622E-03    -96.6990E-03    -404.485E-03    -49.1647E-03         1.14861    -28.8817E-03
              17               3    -941.211E-03    -135.110E-03        -1.05753     603.876E-03         1.29832    -178.590E-03
              18               1    -416.930E-03     170.057E-03        -1.56091     440.908E-03         1.20041    -124.595E-03
              18               2    -523.214E-03     276.341E-03        -2.26745         1.14745         1.15819    -82.3655E-03
              18               3    -236.598E-03    -10.2746E-03    -946.073E-03    -173.929E-03     898.702E-03     177.117E-03
              19               1        -1.89154        -1.07912    -659.812E-03     5.20020E-03         1.69958     9.88009E-03
              19               2        -1.68499        -1.28568    -366.641E-03    -287.970E-03         1.72784    -18.3773E-03
              19               3        -1.66915        -1.30151    -558.756E-03    -95.8560E-03         1.81677    -107.302E-03
              20               1    -126.167E-03     107.734E-03    -284.715E-03     148.432E-03         1.26208    -486.997E-03
              20               2    -325.168E-03     306.735E-03    -809.469E-03     673.186E-03         1.21901    -443.926E-03
              20               3    -229.140E-03     210.707E-03    -116.097E-03    -20.1862E-03         1.04014    -265.059E-03
              21               1        -2.63753        -2.39501    -532.744E-03    -449.271E-03         2.02914     55.9060E-03
              21               2        -2.45783        -2.57471    -430.832E-03    -551.182E-03         2.02438     60.6664E-03
              21               3        -2.46207        -2.57047    -403.730E-03    -578.284E-03         2.04284     42.2047E-03
              22               1     67.1315E-03     74.0064E-03     187.737E-03     91.1926E-03         1.18361    -830.960E-03
              22               2     36.5978E-03     104.540E-03     17.9558E-03     260.974E-03         1.15577    -803.118E-03
              22               3     21.9503E-03     119.188E-03     210.426E-03     68.5029E-03         1.09399    -741.341E-03
              23               1        -3.45921        -3.62378    -540.103E-03    -777.736E-03         2.18142     279.387E-03
              23               2        -3.33688        -3.74610    -548.716E-03    -769.123E-03         2.16344     297.365E-03
              23               3        -3.34801        -3.73497    -430.006E-03    -887.832E-03         2.14601     314.793E-03
              24               1     180.292E-03     81.0211E-03     416.471E-03     189.670E-03     968.132E-03        -1.00263
              24               2     150.787E-03     110.527E-03     406.095E-03     200.046E-03     967.164E-03        -1.00166
              24               3     138.666E-03     122.647E-03     374.083E-03     232.059E-03     966.577E-03        -1.00108
              25               1        -4.38331        -4.76049    -639.605E-03        -1.02424         2.25728     601.413E-03
              25               2        -4.30189        -4.84191    -704.869E-03    -958.979E-03         2.23583     622.859E-03
              25               3        -4.30750        -4.83630    -537.692E-03        -1.12616         2.20134     657.355E-03
              26               1     262.739E-03     113.142E-03     590.419E-03     329.403E-03     675.854E-03        -1.07576
              26               2     224.876E-03     151.005E-03     645.345E-03     274.477E-03     688.327E-03        -1.08823
              26               3     220.278E-03     155.603E-03     521.917E-03     397.905E-03     713.821E-03        -1.11373
              27               1        -5.39039        -5.86180    -797.758E-03        -1.22676         2.31710     974.512E-03
              27               2        -5.34475        -5.90744    -898.029E-03        -1.12649         2.29446     997.148E-03
              27               3        -5.34813        -5.90406    -713.114E-03        -1.31140         2.25063         1.04098
              28               1     339.248E-03     165.659E-03     742.154E-03     488.610E-03     340.844E-03        -1.09103
              28               2     294.179E-03     210.728E-03     834.059E-03     396.705E-03     362.889E-03        -1.11307
              28               3     301.497E-03     203.410E-03     667.396E-03     563.368E-03     403.438E-03        -1.15362
              29               1        -6.46524        -6.99546    -970.123E-03        -1.37086         2.38661         1.37987
              29               2        -6.40643        -7.05427        -1.04588        -1.29511         2.35911         1.40737
              29               3        -6.44368        -7.01702    -931.717E-03        -1.40927         2.32319         1.44329
              30               1     481.148E-03     179.970E-03     894.735E-03     654.740E-03    -27.9190E-03        -1.05505
              30               2     355.216E-03     305.903E-03     980.649E-03     568.826E-03     13.0741E-03        -1.09605
              30               3     411.044E-03     250.075E-03     811.469E-03     738.007E-03     60.6484E-03        -1.14362
              31               1        -7.48217        -8.02377        -2.05682        -2.59496         2.49712         1.79879
              31               2        -6.89221        -8.61373        -2.02071        -2.63108         2.33157         1.96434
              31               3        -7.36521        -8.14072        -2.16261        -2.48917         2.27738         2.01852
              32               1     221.490E-03     157.956E-03     807.095E-03         1.00396    -600.872E-03        -1.12005
              32               2     167.581E-03     211.865E-03     994.460E-03     816.597E-03    -525.514E-03        -1.19541
              32               3     341.571E-03     37.8748E-03     921.324E-03     889.733E-03    -447.230E-03        -1.27369


  Minimum                               -7.48217        -8.61373        -2.26745        -2.63108    -600.872E-03        -1.27369
      At Element                              31              31              18              31              32              32

          Int Pt                               1               2               2               2               1               3
  Maximum                            481.148E-03     306.735E-03      994.46E-03         1.14745         2.49712         2.01852
      At Element                              30              20              32              18              31              31

          Int Pt                               1               2               2               2               1               3


Field Output reported at integration points for region: BEAM-1.Region_4

         Element             Int           S.S11           S.S11           S.S22           S.S22           S.S12           S.S12
           Label              Pt          @Loc 1          @Loc 2          @Loc 1          @Loc 2          @Loc 1          @Loc 2
---------------------------------------------------------------------------------------------------------------------------------
              33               1     25.8127E-03     54.1134E-03    -165.311E-03     178.249E-03         1.16480        -1.16674
              33               2    -473.473E-03     553.399E-03        -1.11554         1.12848         1.17634        -1.17828
              33               3    -404.944E-03     484.870E-03        -1.65120         1.66413         1.01087        -1.01281
              34               1    -886.575E-03     973.744E-03        -3.83101         3.82448         1.29051        -1.28655
              34               2    -462.392E-03     549.560E-03        -1.91465         1.90812         1.13860        -1.13464
              34               3    -4.47126E-03     91.6397E-03    -232.399E-03     225.868E-03         1.63457        -1.63061
              35               1    -37.9293E-03    -5.83120E-03    -33.6030E-03     6.06940E-03         1.17836        -1.21412
              35               2    -17.6434E-03    -26.1171E-03    -257.623E-03     230.089E-03         1.24688        -1.28264
              35               3    -61.8801E-03     18.1196E-03    -410.347E-03     382.813E-03         1.13411        -1.16987
              36               1    -641.788E-03     662.821E-03        -1.66643         1.66170         1.14175        -1.13229
              36               2    -73.6071E-03     94.6399E-03    -772.325E-03     767.595E-03         1.22225        -1.21279
              36               3    -79.5412E-03     100.574E-03    -141.103E-03     136.373E-03         1.28092        -1.27145
              37               1    -34.2029E-03    -17.4013E-03     6.71715E-03    -26.9886E-03         1.11266        -1.14574
              37               2     33.6839E-03    -85.2880E-03     7.88473E-03    -28.1562E-03         1.19848        -1.23156
              37               3     127.033E-03    -178.637E-03     172.285E-03    -192.557E-03         1.10896        -1.14205
              38               1    -158.836E-03     217.229E-03    -398.392E-03     401.505E-03         1.12192        -1.07764
              38               2     109.112E-03    -50.7192E-03    -55.4315E-03     58.5440E-03         1.12556        -1.08128
              38               3    -31.8026E-03     90.1955E-03     9.27626E-03    -6.16382E-03         1.17242        -1.12814
              39               1    -19.1087E-03    -7.29734E-03     18.9761E-03    -38.9951E-03     998.305E-03        -1.03348
              39               2     99.3775E-03    -125.784E-03     135.627E-03    -155.646E-03         1.09826        -1.13343
              39               3     235.307E-03    -261.713E-03     433.897E-03    -453.916E-03         1.01390        -1.04907
              40               1     113.636E-03    -27.8850E-03     223.597E-03    -202.661E-03         1.02485    -981.794E-03
              40               2     211.713E-03    -125.961E-03     282.614E-03    -261.679E-03     987.924E-03    -944.865E-03
              40               3     22.2439E-03     63.5076E-03     78.9814E-03    -58.0461E-03         1.03054    -987.485E-03
              41               1    -18.7201E-03     4.04619E-03     11.1952E-03    -37.4831E-03     842.951E-03    -882.801E-03
              41               2     127.473E-03    -142.147E-03     174.315E-03    -200.603E-03     956.823E-03    -996.674E-03
              41               3     288.131E-03    -302.805E-03     540.586E-03    -566.874E-03     865.886E-03    -905.736E-03
              42               1     249.804E-03    -143.973E-03     500.779E-03    -481.127E-03     887.358E-03    -843.231E-03
              42               2     272.888E-03    -167.058E-03     437.812E-03    -418.160E-03     827.036E-03    -782.909E-03
              42               3     52.0046E-03     53.8261E-03     102.843E-03    -83.1911E-03     873.917E-03    -829.790E-03
              43               1    -29.6990E-03     22.0186E-03    -16.5066E-03    -17.8067E-03     644.189E-03    -693.138E-03
              43               2     137.621E-03    -145.301E-03     157.313E-03    -191.626E-03     767.423E-03    -816.373E-03
              43               3     295.521E-03    -303.201E-03     533.543E-03    -567.856E-03     667.962E-03    -716.912E-03
              44               1     341.587E-03    -199.705E-03     623.964E-03    -603.285E-03     719.524E-03    -664.170E-03
              44               2     322.460E-03    -180.578E-03     502.176E-03    -481.498E-03     647.283E-03    -591.929E-03
              44               3     94.2088E-03     47.6732E-03     112.415E-03    -91.7362E-03     697.207E-03    -641.852E-03
              45               1    -59.5109E-03     67.4553E-03     2.30245E-03     49.8589E-03     386.520E-03    -458.058E-03
              45               2     122.100E-03    -114.156E-03     109.545E-03    -57.3837E-03     512.741E-03    -584.279E-03
              45               3     214.515E-03    -206.570E-03     368.765E-03    -316.603E-03     396.666E-03    -468.204E-03
              46               1     415.398E-03    -210.263E-03     633.501E-03    -603.970E-03     525.602E-03    -455.961E-03
              46               2     362.842E-03    -157.707E-03     480.861E-03    -451.330E-03     454.256E-03    -384.615E-03
              46               3     164.305E-03     40.8304E-03     105.690E-03    -76.1586E-03     499.280E-03    -429.639E-03
              47               1     8.00844E-03    -11.1956E-03    -29.2950E-03     28.3389E-03     139.323E-03    -87.1574E-03
              47               2     73.7911E-03    -76.9783E-03    -104.653E-03     103.697E-03     246.467E-03    -194.302E-03
              47               3     161.072E-03    -164.259E-03     16.6240E-03    -17.5801E-03     121.036E-03    -68.8704E-03
              48               1     224.614E-03    -388.282E-03     433.281E-03    -432.604E-03     211.447E-03    -273.533E-03
              48               2     246.744E-03    -410.412E-03     392.886E-03    -392.208E-03     151.471E-03    -213.557E-03
              48               3     45.2245E-03    -208.892E-03     95.2099E-03    -94.5322E-03     202.402E-03    -264.488E-03
              49               1     441.096E-03    -161.370E-03         1.60768        -1.58472         1.01914    -960.119E-03
              49               2     383.246E-03    -103.520E-03         1.34683        -1.32386     774.123E-03    -715.100E-03
              49               3    -286.227E-03     565.953E-03     245.024E-03    -222.062E-03     972.315E-03    -913.292E-03
              50               1     31.3784E-03     54.8827E-03     337.727E-03    -303.672E-03         1.36847        -1.44753
              50               2     603.137E-03    -516.875E-03         1.52953        -1.49548         1.70373        -1.78279
              50               3         1.39978        -1.31352         3.44626        -3.41221         1.56468        -1.64374
              51               1    -178.958E-03    -37.1698E-03     319.638E-03    -346.652E-03         1.05716        -1.08780
              51               2     43.8176E-03    -259.945E-03     488.735E-03    -515.749E-03     981.797E-03        -1.01244
              51               3    -340.497E-03     124.369E-03     107.727E-03    -134.742E-03         1.07682        -1.10746
              52               1     169.077E-03    -228.184E-03     210.710E-03    -289.397E-03         1.34357        -1.26050
              52               2     200.924E-03    -260.031E-03     608.506E-03    -687.193E-03         1.45145        -1.36838
              52               3     700.486E-03    -759.592E-03         1.51459        -1.59328         1.41823        -1.33516
              53               1    -285.759E-03     136.116E-03    -246.175E-03     226.933E-03         1.05047        -1.09620
              53               2    -94.0481E-03    -55.5952E-03    -34.8103E-03     15.5683E-03         1.06219        -1.10793
              53               3    -199.809E-03     50.1658E-03    -10.4962E-03    -8.74579E-03         1.08005        -1.12579
              54               1     67.4296E-03    -104.985E-03     152.474E-03    -125.917E-03         1.18006        -1.14780
              54               2     4.03355E-03    -41.5892E-03     166.275E-03    -139.718E-03         1.19170        -1.15945
              54               3     137.947E-03    -175.503E-03     337.078E-03    -310.521E-03         1.18637        -1.15411
              55               1    -350.748E-03     232.966E-03    -513.251E-03     495.185E-03     974.552E-03        -1.01556
              55               2    -156.829E-03     39.0466E-03    -280.574E-03     262.508E-03         1.03546        -1.07647
              55               3    -137.391E-03     19.6085E-03    -65.9966E-03     47.9301E-03         1.00811        -1.04912
              56               1     38.7251E-03    -52.6868E-03     50.4702E-03    -29.0077E-03         1.04749        -1.01614
              56               2    -81.9763E-03     68.0146E-03    -73.5642E-03     95.0268E-03         1.00220    -970.861E-03
              56               3    -95.1610E-03     81.1994E-03    -199.589E-03     221.052E-03         1.03060    -999.255E-03
              57               1    -398.693E-03     280.574E-03    -634.569E-03     612.059E-03     838.081E-03    -881.344E-03
              57               2    -205.937E-03     87.8183E-03    -402.618E-03     380.109E-03     925.471E-03    -968.735E-03
              57               3    -124.743E-03     6.62372E-03    -100.092E-03     77.5826E-03     871.566E-03    -914.829E-03
              58               1     26.5748E-03    -28.3408E-03     6.24152E-03     10.4970E-03     895.868E-03    -857.852E-03
              58               2    -126.323E-03     124.557E-03    -179.229E-03     195.968E-03     818.445E-03    -780.428E-03
              58               3    -210.376E-03     208.610E-03    -448.091E-03     464.830E-03     869.022E-03    -831.005E-03
              59               1    -417.110E-03     269.470E-03    -630.096E-03     605.444E-03     652.141E-03    -709.911E-03
              59               2    -250.756E-03     103.116E-03    -439.996E-03     415.344E-03     752.052E-03    -809.821E-03
              59               3    -132.349E-03    -15.2915E-03    -113.837E-03     89.1851E-03     679.101E-03    -736.871E-03
              60               1     27.5503E-03    -20.4167E-03    -11.9893E-03     27.0558E-03     716.413E-03    -665.583E-03
              60               2    -148.770E-03     155.903E-03    -215.809E-03     230.876E-03     614.252E-03    -563.422E-03
              60               3    -267.501E-03     274.634E-03    -552.796E-03     567.863E-03     687.389E-03    -636.559E-03
              61               1    -428.740E-03     228.953E-03    -439.986E-03     439.969E-03     431.105E-03    -495.853E-03
              61               2    -280.771E-03     80.9830E-03    -347.805E-03     347.788E-03     546.071E-03    -610.819E-03
              61               3    -174.115E-03    -25.6727E-03    -89.4214E-03     89.4045E-03     440.295E-03    -505.043E-03
              62               1     26.2563E-03    -28.2476E-03    -11.4156E-03     30.4582E-03     509.648E-03    -434.390E-03
              62               2    -179.538E-03     177.547E-03    -199.271E-03     218.313E-03     383.481E-03    -308.223E-03
              62               3    -296.015E-03     294.023E-03    -538.927E-03     557.970E-03     485.395E-03    -410.137E-03
              63               1    -159.461E-03     334.532E-03    -93.1192E-03     145.640E-03     178.664E-03    -138.022E-03
              63               2    -75.2697E-03     250.340E-03    -203.704E-03     256.225E-03     328.300E-03    -287.657E-03
              63               3     54.3034E-03     120.767E-03    -28.9898E-03     81.5109E-03     152.541E-03    -111.899E-03
              64               1     43.4798E-03    -26.9133E-03     50.9039E-03     13.9854E-03     176.858E-03    -249.473E-03
              64               2    -54.0629E-03     70.6294E-03     20.3950E-03     44.4943E-03     38.3677E-03    -110.983E-03
              64               3    -244.752E-03     261.318E-03    -309.743E-03     374.632E-03     176.618E-03    -249.233E-03


  Minimum                           -886.575E-03        -1.31352        -3.83101        -3.41221     38.3677E-03        -1.78279
      At Element                              34              50              34              50              64              50

          Int Pt                               1               3               1               3               2               2
  Maximum                                1.39978     973.744E-03         3.44626         3.82448         1.70373    -68.8704E-03
      At Element                              50              34              50              34              50              47

          Int Pt                               3               1               3               1               2               3


********************************************************************************
Field Output Report, written Tue Sep 20 20:47:04 2016

Source 1
---------

   ODB: E:/project ehsan/main model - 3/Job-1.odb
   Step: Step-1
   Frame: Increment      1: Step Time =    1.000

Loc 1 : Nodal values from source 1

Output sorted by column "Node Label".

Field Output reported at nodes for part: BEAM-1

            Node            U.U1            U.U2            U.U3
           Label          @Loc 1          @Loc 1          @Loc 1
-----------------------------------------------------------------
               1     16.1058E-03    -89.5448E-03     150.204E-03
               2     5.96539E-36     401.133E-39     9.28969E-39
               3     224.196E-39     830.602E-39    -6.74257E-39
               4     129.132E-06    -88.5244E-03    -1.01968E-03
               5    -15.3246E-03    -88.2629E-03    -148.940E-03
               6    -6.18784E-36    -2.79621E-36    -8.60379E-39
               7    -228.786E-39    -830.560E-39     25.3290E-39
               8    -120.875E-06     88.3894E-03    -1.01662E-03
               9    -15.4207E-03     88.2587E-03     150.910E-03
              10    -5.96650E-36    -399.756E-39     9.36453E-39
              11     6.18787E-36     2.79641E-36    -8.68446E-39
              12     15.3931E-03     89.1206E-03    -149.515E-03
              13     15.4621E-03    -72.6039E-03     132.909E-03
              14     14.6538E-03    -56.9013E-03     110.328E-03
              15     13.4078E-03    -42.2437E-03     85.0411E-03
              16     11.6908E-03    -29.0417E-03     60.3603E-03
              17     9.49612E-03    -17.7690E-03     38.4542E-03
              18     6.82412E-03    -8.90762E-03     20.3290E-03
              19     3.68020E-03    -2.92191E-03     6.53601E-03
              20    -40.9678E-06    -2.36803E-03     40.1296E-06
              21     8.10110E-06    -8.38940E-03     63.8921E-06
              22     42.0207E-06    -17.3222E-03     11.8359E-06
              23     67.0045E-06    -28.6689E-03    -100.880E-06
              24     86.8722E-06    -41.9448E-03    -264.225E-06
              25     101.237E-06    -56.6712E-03    -478.268E-06
              26     106.850E-06    -72.3714E-03    -743.917E-06
              27    -15.0895E-03    -72.3387E-03    -133.630E-03
              28    -14.3960E-03    -56.7303E-03    -111.530E-03
              29    -13.2115E-03    -42.0767E-03    -85.8658E-03
              30    -11.5396E-03    -28.8706E-03    -60.7715E-03
              31    -9.37841E-03    -17.5920E-03    -38.6270E-03
              32    -6.71720E-03    -8.72719E-03    -20.5603E-03
              33    -3.52760E-03    -2.79234E-03    -7.19641E-03
              34     5.66786E-39    -1.62460E-39    -19.9524E-39
              35     39.8285E-06     2.36902E-03     26.4174E-06
              36    -10.1171E-06     8.39029E-03     65.4383E-06
              37    -45.1782E-06     17.3232E-03     12.9558E-06
              38    -73.0198E-06     28.6700E-03    -101.526E-06
              39    -101.110E-06     41.9463E-03    -266.833E-06
              40    -137.078E-06     56.6741E-03    -481.195E-06
              41    -189.084E-06     72.3778E-03    -734.918E-06
              42    -10.0393E-06     22.9616E-06    -1.01560E-03
              43    -15.2900E-03     72.4737E-03     132.985E-03
              44    -14.6115E-03     56.9127E-03     110.173E-03
              45    -13.3957E-03     42.2551E-03     84.8706E-03
              46    -11.6875E-03     29.0471E-03     60.2562E-03
              47    -9.49577E-03     17.7717E-03     38.4296E-03
              48    -6.82466E-03     8.90917E-03     20.3565E-03
              49    -3.68076E-03     2.92313E-03     6.55908E-03
              50     3.52742E-03     2.79293E-03    -7.23517E-03
              51     6.71702E-03     8.72799E-03    -20.5879E-03
              52     9.37962E-03     17.5931E-03    -38.5958E-03
              53     11.5452E-03     28.8721E-03    -60.6608E-03
              54     13.2291E-03     42.0796E-03    -85.6804E-03
              55     14.4449E-03     56.7428E-03    -111.351E-03
              56     15.2027E-03     72.4318E-03    -133.699E-03
              57    -29.0505E-06     115.208E-06    -742.537E-06
              58    -20.1753E-06     120.673E-06    -476.467E-06
              59    -8.79466E-06     63.4743E-06    -263.626E-06
              60    -3.69456E-06     31.8388E-06    -99.3678E-06
              61    -1.99767E-06     8.77007E-06     14.5717E-06
              62    -2.65107E-06    -15.3778E-06     67.8932E-06
              63    -725.070E-09    -12.8123E-06     33.9073E-06


  Minimum           -15.4207E-03    -89.5448E-03    -149.515E-03

         At Node               9               1              12
  Maximum            16.1058E-03     89.1206E-03      150.91E-03

         At Node               1              12               9


