********************************************************************************

   Variable: S, Mises (Not averaged)

Loc 1 : Integration point values at shell < MATERIAL-1 > < 5 section points > : SNEG, (fraction = -1.0)

Probe values reported at integration points

  Part Instance  Element ID        Type  Attached nodes
--------------------------------------------------------------------------------
    PART-1-1           1       STRI3           1          13          26
    PART-1-1           2       STRI3          26           4           1
    PART-1-1           3       STRI3          13          14          25
    PART-1-1           4       STRI3          25          26          13
    PART-1-1           5       STRI3          14          15          24
    PART-1-1           6       STRI3          24          25          14
    PART-1-1           7       STRI3          15          16          23
    PART-1-1           8       STRI3          23          24          15
    PART-1-1           9       STRI3          16          17          22
    PART-1-1          10       STRI3          22          23          16
    PART-1-1          11       STRI3          17          18          21
    PART-1-1          12       STRI3          21          22          17
    PART-1-1          13       STRI3          18          19          20
    PART-1-1          14       STRI3          20          21          18
    PART-1-1          15       STRI3          19           2           3
    PART-1-1          16       STRI3           3          20          19
    PART-1-1          17       STRI3           2          19          33
    PART-1-1          18       STRI3          33           6           2
    PART-1-1          19       STRI3          19          18          32
    PART-1-1          20       STRI3          32          33          19
    PART-1-1          21       STRI3          18          17          31
    PART-1-1          22       STRI3          31          32          18
    PART-1-1          23       STRI3          17          16          30
    PART-1-1          24       STRI3          30          31          17
    PART-1-1          25       STRI3          16          15          29
    PART-1-1          26       STRI3          29          30          16
    PART-1-1          27       STRI3          15          14          28
    PART-1-1          28       STRI3          28          29          15
    PART-1-1          29       STRI3          14          13          27
    PART-1-1          30       STRI3          27          28          14
    PART-1-1          31       STRI3          13           1           5
    PART-1-1          32       STRI3           5          27          13
    PART-1-1          33       STRI3           7           8          34
    PART-1-1          34       STRI3          34          47           7
    PART-1-1          35       STRI3          47          34          35
    PART-1-1          36       STRI3          35          46          47
    PART-1-1          37       STRI3          46          35          36
    PART-1-1          38       STRI3          36          45          46
    PART-1-1          39       STRI3          45          36          37
    PART-1-1          40       STRI3          37          44          45
    PART-1-1          41       STRI3          44          37          38
    PART-1-1          42       STRI3          38          43          44
    PART-1-1          43       STRI3          43          38          39
    PART-1-1          44       STRI3          39          42          43
    PART-1-1          45       STRI3          42          39          40
    PART-1-1          46       STRI3          40          41          42
    PART-1-1          47       STRI3          41          40           9
    PART-1-1          48       STRI3           9          10          41
    PART-1-1          49       STRI3           8          11          48
    PART-1-1          50       STRI3          48          34           8
    PART-1-1          51       STRI3          34          48          49
    PART-1-1          52       STRI3          49          35          34
    PART-1-1          53       STRI3          35          49          50
    PART-1-1          54       STRI3          50          36          35
    PART-1-1          55       STRI3          36          50          51
    PART-1-1          56       STRI3          51          37          36
    PART-1-1          57       STRI3          37          51          52
    PART-1-1          58       STRI3          52          38          37
    PART-1-1          59       STRI3          38          52          53
    PART-1-1          60       STRI3          53          39          38
    PART-1-1          61       STRI3          39          53          54
    PART-1-1          62       STRI3          54          40          39
    PART-1-1          63       STRI3          40          54          12
    PART-1-1          64       STRI3          12           9          40
    PART-1-1          65       STRI3           8          55          57
    PART-1-1          66       STRI3          57          34           8
    PART-1-1          67       STRI3          55           2          19
    PART-1-1          68       STRI3          19          57          55
    PART-1-1          69       STRI3          34          57          58
    PART-1-1          70       STRI3          58          35          34
    PART-1-1          71       STRI3          57          19          18
    PART-1-1          72       STRI3          18          58          57
    PART-1-1          73       STRI3          35          58          59
    PART-1-1          74       STRI3          59          36          35
    PART-1-1          75       STRI3          58          18          17
    PART-1-1          76       STRI3          17          59          58
    PART-1-1          77       STRI3          36          59          60
    PART-1-1          78       STRI3          60          37          36
    PART-1-1          79       STRI3          59          17          16
    PART-1-1          80       STRI3          16          60          59
    PART-1-1          81       STRI3          37          60          61
    PART-1-1          82       STRI3          61          38          37
    PART-1-1          83       STRI3          60          16          15
    PART-1-1          84       STRI3          15          61          60
    PART-1-1          85       STRI3          38          61          62
    PART-1-1          86       STRI3          62          39          38
    PART-1-1          87       STRI3          61          15          14
    PART-1-1          88       STRI3          14          62          61
    PART-1-1          89       STRI3          39          62          63
    PART-1-1          90       STRI3          63          40          39
    PART-1-1          91       STRI3          62          14          13
    PART-1-1          92       STRI3          13          63          62
    PART-1-1          93       STRI3          40          63          56
    PART-1-1          94       STRI3          56           9          40
    PART-1-1          95       STRI3          63          13           1
    PART-1-1          96       STRI3           1          56          63


  Part Instance  Element ID        Type        Int. Pt.        S, Mises
--------------------------------------------------------------------------------
    PART-1-1           1       STRI3               1     14.8361E+06
    PART-1-1           1       STRI3               2     15.1412E+06
    PART-1-1           1       STRI3               3  16.3428E+06 (LAYER_1)
    PART-1-1           2       STRI3               1     53.4099E+06
    PART-1-1           2       STRI3               2      57.722E+06
    PART-1-1           2       STRI3               3  55.3596E+06 (LAYER_1)
    PART-1-1           3       STRI3               1     13.2287E+06
    PART-1-1           3       STRI3               2      13.531E+06
    PART-1-1           3       STRI3               3  14.3747E+06 (LAYER_1)
    PART-1-1           4       STRI3               1     50.4781E+06
    PART-1-1           4       STRI3               2     49.7894E+06
    PART-1-1           4       STRI3               3  50.0075E+06 (LAYER_1)
    PART-1-1           5       STRI3               1     13.3694E+06
    PART-1-1           5       STRI3               2     13.5074E+06
    PART-1-1           5       STRI3               3  14.1993E+06 (LAYER_1)
    PART-1-1           6       STRI3               1     44.4367E+06
    PART-1-1           6       STRI3               2     43.8301E+06
    PART-1-1           6       STRI3               3  43.8989E+06 (LAYER_1)
    PART-1-1           7       STRI3               1      13.001E+06
    PART-1-1           7       STRI3               2     13.0989E+06
    PART-1-1           7       STRI3               3  13.514E+06  (LAYER_1)
    PART-1-1           8       STRI3               1       39.08E+06
    PART-1-1           8       STRI3               2     38.3863E+06
    PART-1-1           8       STRI3               3  38.4452E+06 (LAYER_1)
    PART-1-1           9       STRI3               1     12.0264E+06
    PART-1-1           9       STRI3               2     12.0211E+06
    PART-1-1           9       STRI3               3  12.034E+06  (LAYER_1)
    PART-1-1          10       STRI3               1      34.254E+06
    PART-1-1          10       STRI3               2     33.5402E+06
    PART-1-1          10       STRI3               3  33.6279E+06 (LAYER_1)
    PART-1-1          11       STRI3               1     14.1811E+06
    PART-1-1          11       STRI3               2     13.8066E+06
    PART-1-1          11       STRI3               3  13.1417E+06 (LAYER_1)
    PART-1-1          12       STRI3               1     29.4138E+06
    PART-1-1          12       STRI3               2     28.8218E+06
    PART-1-1          12       STRI3               3  29.0585E+06 (LAYER_1)
    PART-1-1          13       STRI3               1     15.1797E+06
    PART-1-1          13       STRI3               2     15.3556E+06
    PART-1-1          13       STRI3               3  12.515E+06  (LAYER_1)
    PART-1-1          14       STRI3               1     23.3199E+06
    PART-1-1          14       STRI3               2     23.2025E+06
    PART-1-1          14       STRI3               3  23.9605E+06 (LAYER_1)
    PART-1-1          15       STRI3               1     17.3037E+06
    PART-1-1          15       STRI3               2     19.8389E+06
    PART-1-1          15       STRI3               3  12.2383E+06 (LAYER_1)
    PART-1-1          16       STRI3               1     13.5765E+06
    PART-1-1          16       STRI3               2     14.9296E+06
    PART-1-1          16       STRI3               3  16.9837E+06 (LAYER_1)
    PART-1-1          17       STRI3               1     18.2691E+06
    PART-1-1          17       STRI3               2     17.2042E+06
    PART-1-1          17       STRI3               3  16.7194E+06 (LAYER_1)
    PART-1-1          18       STRI3               1     17.4471E+06
    PART-1-1          18       STRI3               2     17.0005E+06
    PART-1-1          18       STRI3               3  22.182E+06  (LAYER_1)
    PART-1-1          19       STRI3               1     22.7291E+06
    PART-1-1          19       STRI3               2     22.3458E+06
    PART-1-1          19       STRI3               3  21.9502E+06 (LAYER_1)
    PART-1-1          20       STRI3               1     17.2511E+06
    PART-1-1          20       STRI3               2     18.5776E+06
    PART-1-1          20       STRI3               3  17.8861E+06 (LAYER_1)
    PART-1-1          21       STRI3               1     25.3564E+06
    PART-1-1          21       STRI3               2     25.3058E+06
    PART-1-1          21       STRI3               3  24.6996E+06 (LAYER_1)
    PART-1-1          22       STRI3               1     20.8587E+06
    PART-1-1          22       STRI3               2     21.8676E+06
    PART-1-1          22       STRI3               3  21.6768E+06 (LAYER_1)
    PART-1-1          23       STRI3               1     27.1023E+06
    PART-1-1          23       STRI3               2     27.0568E+06
    PART-1-1          23       STRI3               3  26.3576E+06 (LAYER_1)
    PART-1-1          24       STRI3               1     27.0723E+06
    PART-1-1          24       STRI3               2     26.6621E+06
    PART-1-1          24       STRI3               3  26.8391E+06 (LAYER_1)
    PART-1-1          25       STRI3               1     28.0671E+06
    PART-1-1          25       STRI3               2     28.0063E+06
    PART-1-1          25       STRI3               3  27.2507E+06 (LAYER_1)
    PART-1-1          26       STRI3               1     33.4784E+06
    PART-1-1          26       STRI3               2     33.6556E+06
    PART-1-1          26       STRI3               3  33.5904E+06 (LAYER_1)
    PART-1-1          27       STRI3               1     28.4559E+06
    PART-1-1          27       STRI3               2     28.3679E+06
    PART-1-1          27       STRI3               3  27.7436E+06 (LAYER_1)
    PART-1-1          28       STRI3               1     39.7273E+06
    PART-1-1          28       STRI3               2     40.1693E+06
    PART-1-1          28       STRI3               3  39.9863E+06 (LAYER_1)
    PART-1-1          29       STRI3               1     27.9937E+06
    PART-1-1          29       STRI3               2     27.7111E+06
    PART-1-1          29       STRI3               3  27.2198E+06 (LAYER_1)
    PART-1-1          30       STRI3               1     46.1959E+06
    PART-1-1          30       STRI3               2     46.4913E+06
    PART-1-1          30       STRI3               3  46.3419E+06 (LAYER_1)
    PART-1-1          31       STRI3               1      24.502E+06
    PART-1-1          31       STRI3               2     23.2421E+06
    PART-1-1          31       STRI3               3  22.4668E+06 (LAYER_1)
    PART-1-1          32       STRI3               1      54.811E+06
    PART-1-1          32       STRI3               2     53.4401E+06
    PART-1-1          32       STRI3               3  53.1357E+06 (LAYER_1)
    PART-1-1          33       STRI3               1     12.2434E+06
    PART-1-1          33       STRI3               2     20.5537E+06
    PART-1-1          33       STRI3               3  17.7602E+06 (LAYER_1)
    PART-1-1          34       STRI3               1     17.0798E+06
    PART-1-1          34       STRI3               2      15.049E+06
    PART-1-1          34       STRI3               3  13.7199E+06 (LAYER_1)
    PART-1-1          35       STRI3               1     12.7295E+06
    PART-1-1          35       STRI3               2     15.4258E+06
    PART-1-1          35       STRI3               3  15.2444E+06 (LAYER_1)
    PART-1-1          36       STRI3               1     23.9607E+06
    PART-1-1          36       STRI3               2     23.2426E+06
    PART-1-1          36       STRI3               3  23.3692E+06 (LAYER_1)
    PART-1-1          37       STRI3               1     13.1942E+06
    PART-1-1          37       STRI3               2     13.8201E+06
    PART-1-1          37       STRI3               3  14.1798E+06 (LAYER_1)
    PART-1-1          38       STRI3               1     29.0193E+06
    PART-1-1          38       STRI3               2     28.7939E+06
    PART-1-1          38       STRI3               3  29.3744E+06 (LAYER_1)
    PART-1-1          39       STRI3               1     12.0118E+06
    PART-1-1          39       STRI3               2     11.9889E+06
    PART-1-1          39       STRI3               3  11.9893E+06 (LAYER_1)
    PART-1-1          40       STRI3               1      33.593E+06
    PART-1-1          40       STRI3               2     33.5084E+06
    PART-1-1          40       STRI3               3  34.2127E+06 (LAYER_1)
    PART-1-1          41       STRI3               1     13.4744E+06
    PART-1-1          41       STRI3               2     13.0594E+06
    PART-1-1          41       STRI3               3  12.9619E+06 (LAYER_1)
    PART-1-1          42       STRI3               1     38.4268E+06
    PART-1-1          42       STRI3               2     38.3701E+06
    PART-1-1          42       STRI3               3  39.0551E+06 (LAYER_1)
    PART-1-1          43       STRI3               1     14.1652E+06
    PART-1-1          43       STRI3               2     13.4738E+06
    PART-1-1          43       STRI3               3  13.336E+06  (LAYER_1)
    PART-1-1          44       STRI3               1      43.901E+06
    PART-1-1          44       STRI3               2     43.8345E+06
    PART-1-1          44       STRI3               3  44.4296E+06 (LAYER_1)
    PART-1-1          45       STRI3               1      14.364E+06
    PART-1-1          45       STRI3               2     13.5244E+06
    PART-1-1          45       STRI3               3  13.2253E+06 (LAYER_1)
    PART-1-1          46       STRI3               1     50.0297E+06
    PART-1-1          46       STRI3               2     49.8091E+06
    PART-1-1          46       STRI3               3  50.4914E+06 (LAYER_1)
    PART-1-1          47       STRI3               1     16.3346E+06
    PART-1-1          47       STRI3               2     15.1607E+06
    PART-1-1          47       STRI3               3  14.8495E+06 (LAYER_1)
    PART-1-1          48       STRI3               1     55.3715E+06
    PART-1-1          48       STRI3               2     57.7518E+06
    PART-1-1          48       STRI3               3  53.3927E+06 (LAYER_1)
    PART-1-1          49       STRI3               1     22.5517E+06
    PART-1-1          49       STRI3               2     17.1231E+06
    PART-1-1          49       STRI3               3  17.4944E+06 (LAYER_1)
    PART-1-1          50       STRI3               1     16.8744E+06
    PART-1-1          50       STRI3               2     17.6007E+06
    PART-1-1          50       STRI3               3  18.8738E+06 (LAYER_1)
    PART-1-1          51       STRI3               1     17.9161E+06
    PART-1-1          51       STRI3               2     18.5723E+06
    PART-1-1          51       STRI3               3  17.2929E+06 (LAYER_1)
    PART-1-1          52       STRI3               1     22.0082E+06
    PART-1-1          52       STRI3               2     22.3935E+06
    PART-1-1          52       STRI3               3  22.78E+06   (LAYER_1)
    PART-1-1          53       STRI3               1     21.6555E+06
    PART-1-1          53       STRI3               2     21.8295E+06
    PART-1-1          53       STRI3               3  20.8632E+06 (LAYER_1)
    PART-1-1          54       STRI3               1     24.6892E+06
    PART-1-1          54       STRI3               2     25.2867E+06
    PART-1-1          54       STRI3               3  25.3321E+06 (LAYER_1)
    PART-1-1          55       STRI3               1     26.8457E+06
    PART-1-1          55       STRI3               2     26.6803E+06
    PART-1-1          55       STRI3               3  27.0609E+06 (LAYER_1)
    PART-1-1          56       STRI3               1     26.3272E+06
    PART-1-1          56       STRI3               2       27.02E+06
    PART-1-1          56       STRI3               3  27.0662E+06 (LAYER_1)
    PART-1-1          57       STRI3               1     33.5745E+06
    PART-1-1          57       STRI3               2     33.6447E+06
    PART-1-1          57       STRI3               3  33.4577E+06 (LAYER_1)
    PART-1-1          58       STRI3               1     27.2204E+06
    PART-1-1          58       STRI3               2     27.9702E+06
    PART-1-1          58       STRI3               3  28.0307E+06 (LAYER_1)
    PART-1-1          59       STRI3               1     39.9668E+06
    PART-1-1          59       STRI3               2       40.15E+06
    PART-1-1          59       STRI3               3  39.7047E+06 (LAYER_1)
    PART-1-1          60       STRI3               1     27.7338E+06
    PART-1-1          60       STRI3               2     28.3418E+06
    PART-1-1          60       STRI3               3  28.4309E+06 (LAYER_1)
    PART-1-1          61       STRI3               1     46.3232E+06
    PART-1-1          61       STRI3               2     46.4682E+06
    PART-1-1          61       STRI3               3  46.1815E+06 (LAYER_1)
    PART-1-1          62       STRI3               1     27.2277E+06
    PART-1-1          62       STRI3               2     27.7036E+06
    PART-1-1          62       STRI3               3  27.9852E+06 (LAYER_1)
    PART-1-1          63       STRI3               1     53.1244E+06
    PART-1-1          63       STRI3               2     53.4285E+06
    PART-1-1          63       STRI3               3  54.8276E+06 (LAYER_1)
    PART-1-1          64       STRI3               1     22.4841E+06
    PART-1-1          64       STRI3               2     23.2685E+06
    PART-1-1          64       STRI3               3  24.5435E+06 (LAYER_1)
    PART-1-1          65       STRI3               1     28.3696E+06
    PART-1-1          65       STRI3               2     17.1971E+06
    PART-1-1          65       STRI3               3  22.9554E+06 (LAYER_1)
    PART-1-1          66       STRI3               1     12.0629E+06
    PART-1-1          66       STRI3               2     15.6024E+06
    PART-1-1          66       STRI3               3  12.3869E+06 (LAYER_1)
    PART-1-1          67       STRI3               1     19.7672E+06
    PART-1-1          67       STRI3               2     28.6447E+06
    PART-1-1          67       STRI3               3  18.2186E+06 (LAYER_1)
    PART-1-1          68       STRI3               1     15.8885E+06
    PART-1-1          68       STRI3               2     14.0369E+06
    PART-1-1          68       STRI3               3  15.6955E+06 (LAYER_1)
    PART-1-1          69       STRI3               1     18.8652E+06
    PART-1-1          69       STRI3               2     15.6411E+06
    PART-1-1          69       STRI3               3  17.2936E+06 (LAYER_1)
    PART-1-1          70       STRI3               1      13.266E+06
    PART-1-1          70       STRI3               2     13.1129E+06
    PART-1-1          70       STRI3               3  12.3429E+06 (LAYER_1)
    PART-1-1          71       STRI3               1     15.2831E+06
    PART-1-1          71       STRI3               2     16.8808E+06
    PART-1-1          71       STRI3               3  15.3885E+06 (LAYER_1)
    PART-1-1          72       STRI3               1      14.041E+06
    PART-1-1          72       STRI3               2     14.3134E+06
    PART-1-1          72       STRI3               3  15.234E+06  (LAYER_1)
    PART-1-1          73       STRI3               1     14.1372E+06
    PART-1-1          73       STRI3               2     13.9539E+06
    PART-1-1          73       STRI3               3  14.1091E+06 (LAYER_1)
    PART-1-1          74       STRI3               1     13.2488E+06
    PART-1-1          74       STRI3               2      12.956E+06
    PART-1-1          74       STRI3               3  12.9994E+06 (LAYER_1)
    PART-1-1          75       STRI3               1     13.7729E+06
    PART-1-1          75       STRI3               2     13.3864E+06
    PART-1-1          75       STRI3               3  13.2504E+06 (LAYER_1)
    PART-1-1          76       STRI3               1     13.5308E+06
    PART-1-1          76       STRI3               2     13.5172E+06
    PART-1-1          76       STRI3               3  14.5509E+06 (LAYER_1)
    PART-1-1          77       STRI3               1      12.216E+06
    PART-1-1          77       STRI3               2     12.3538E+06
    PART-1-1          77       STRI3               3  11.8339E+06 (LAYER_1)
    PART-1-1          78       STRI3               1     12.3387E+06
    PART-1-1          78       STRI3               2     12.3017E+06
    PART-1-1          78       STRI3               3  12.7477E+06 (LAYER_1)
    PART-1-1          79       STRI3               1      12.095E+06
    PART-1-1          79       STRI3               2     12.0878E+06
    PART-1-1          79       STRI3               3  11.7034E+06 (LAYER_1)
    PART-1-1          80       STRI3               1     12.6343E+06
    PART-1-1          80       STRI3               2     12.1622E+06
    PART-1-1          80       STRI3               3  13.3922E+06 (LAYER_1)
    PART-1-1          81       STRI3               1     10.5433E+06
    PART-1-1          81       STRI3               2     10.5017E+06
    PART-1-1          81       STRI3               3  9.65915E+06(LAYER_1)
    PART-1-1          82       STRI3               1     10.7352E+06
    PART-1-1          82       STRI3               2      10.972E+06
    PART-1-1          82       STRI3               3  11.5912E+06 (LAYER_1)
    PART-1-1          83       STRI3               1     10.2249E+06
    PART-1-1          83       STRI3               2     10.7793E+06
    PART-1-1          83       STRI3               3  9.99153E+06(LAYER_1)
    PART-1-1          84       STRI3               1     11.1248E+06
    PART-1-1          84       STRI3               2     10.3451E+06
    PART-1-1          84       STRI3               3  11.7712E+06 (LAYER_1)
    PART-1-1          85       STRI3               1     8.63997E+06
    PART-1-1          85       STRI3               2      8.2992E+06
    PART-1-1          85       STRI3               3  7.2396E+06 (LAYER_1)
    PART-1-1          86       STRI3               1     8.50979E+06
    PART-1-1          86       STRI3               2     8.99293E+06
    PART-1-1          86       STRI3               3  9.70043E+06(LAYER_1)
    PART-1-1          87       STRI3               1     8.06855E+06
    PART-1-1          87       STRI3               2     9.08755E+06
    PART-1-1          87       STRI3               3  8.02321E+06(LAYER_1)
    PART-1-1          88       STRI3               1     8.92394E+06
    PART-1-1          88       STRI3               2      8.0031E+06
    PART-1-1          88       STRI3               3  9.56009E+06(LAYER_1)
    PART-1-1          89       STRI3               1      6.3142E+06
    PART-1-1          89       STRI3               2     5.63845E+06
    PART-1-1          89       STRI3               3  4.41978E+06(LAYER_1)
    PART-1-1          90       STRI3               1     6.03748E+06
    PART-1-1          90       STRI3               2     6.41959E+06
    PART-1-1          90       STRI3               3  7.56014E+06(LAYER_1)
    PART-1-1          91       STRI3               1     5.61031E+06
    PART-1-1          91       STRI3               2     6.96897E+06
    PART-1-1          91       STRI3               3  5.79812E+06(LAYER_1)
    PART-1-1          92       STRI3               1      5.8136E+06
    PART-1-1          92       STRI3               2     5.43495E+06
    PART-1-1          92       STRI3               3  6.89473E+06(LAYER_1)
    PART-1-1          93       STRI3               1     3.74257E+06
    PART-1-1          93       STRI3               2     2.88635E+06
    PART-1-1          93       STRI3               3  1.41429E+06(LAYER_1)
    PART-1-1          94       STRI3               1     1.77158E+06
    PART-1-1          94       STRI3               2     2.78359E+06
    PART-1-1          94       STRI3               3  4.09976E+06(LAYER_1)
    PART-1-1          95       STRI3               1     3.39363E+06
    PART-1-1          95       STRI3               2     4.38244E+06
    PART-1-1          95       STRI3               3  3.81839E+06(LAYER_1)
    PART-1-1          96       STRI3               1     1.77681E+06
    PART-1-1          96       STRI3               2     1.43991E+06
    PART-1-1          96       STRI3               3  2.93812E+06(LAYER_1)


