********************************************************************************
Field Output Report, written Fri Nov 18 15:52:38 2016

Source 1
---------

   ODB: F:/project ehsan/New folder/main model - 1/Job-1.odb
   Step: Step-1
   Frame: Increment      1: Step Time =    1.000

Loc 1 : Integration point values at shell < MATERIAL-1 > < 5 section points > from source 1 : SNEG, (fraction = -1.0)
Loc 2 : Integration point values at shell < MATERIAL-1 > < 5 section points > from source 1 : SPOS, (fraction = 1.0)

Output sorted by column "Element Label".

Field Output reported at integration points for region: BEAM-1.Region_1

         Element             Int           S.S11           S.S11           S.S22           S.S22           S.S12           S.S12
           Label              Pt          @Loc 1          @Loc 2          @Loc 1          @Loc 2          @Loc 1          @Loc 2
---------------------------------------------------------------------------------------------------------------------------------
              33               1        -2.69235        -3.15499        -1.35013        -1.52913     875.888E-03     365.664E-03
              33               2        -2.65912        -3.15797     90.6848E-03    -209.007E-03         1.09073     150.822E-03
              33               3        -9.45556        -11.1459        -1.24678        -1.79408     897.010E-03     344.542E-03
              33               4        -9.42233        -11.1489     194.035E-03    -473.958E-03         1.11185     129.700E-03
              34               1        -2.20019        -2.44543     693.076E-03     363.440E-03         1.42248    -221.633E-03
              34               2        -2.17678        -2.48131     222.329E-03    -304.936E-03         1.49939    -298.551E-03
              34               3        -8.55580        -9.24057     686.987E-03     225.490E-03         1.45706    -256.218E-03
              34               4        -8.53239        -9.27646     216.240E-03    -442.886E-03         1.53398    -333.136E-03
              35               1        -1.82967        -2.17801     290.541E-03    -309.169E-03         1.71682    -528.957E-03
              35               2        -1.83315        -2.17562     231.139E-03    -348.974E-03         1.80535    -617.491E-03
              35               3        -7.04283        -7.89709     306.558E-03    -444.926E-03         1.71339    -525.527E-03
              35               4        -7.04631        -7.89469     247.156E-03    -484.730E-03         1.80192    -614.062E-03
              36               1        -1.45497        -1.78190     397.553E-03    -155.567E-03         2.00251    -850.099E-03
              36               2        -1.46395        -1.77664     204.233E-03    -301.444E-03         2.08670    -934.288E-03
              36               3        -5.68352        -6.49152     420.765E-03    -276.679E-03         1.99421    -841.797E-03
              36               4        -5.69249        -6.48626     227.446E-03    -422.555E-03         2.07840    -925.986E-03
              37               1        -1.14166        -1.39373     305.986E-03    -143.492E-03         2.26139        -1.12790
              37               2        -1.15345        -1.38552     109.316E-03    -273.476E-03         2.32435        -1.19086
              37               3        -4.42389        -5.03573     322.029E-03    -235.376E-03         2.24972        -1.11623
              37               4        -4.43568        -5.02751     125.359E-03    -365.360E-03         2.31267        -1.17918
              38               1    -837.847E-03    -916.712E-03     219.003E-03    -46.5888E-03         2.39650        -1.27961
              38               2    -860.660E-03    -895.370E-03     78.2613E-03    -40.1451E-03         2.39416        -1.27726
              38               3        -3.37456        -3.44004     189.284E-03    -72.2917E-03         2.37074        -1.25385
              38               4        -3.39738        -3.41870     48.5420E-03    -65.8480E-03         2.36840        -1.25151
              39               1    -882.877E-03    -460.989E-03    -27.5835E-03     351.455E-03         2.39082        -1.02353
              39               2        -1.02568    -323.287E-03    -728.084E-03     585.977E-03         2.23049    -863.195E-03
              39               3        -2.55252        -1.21445    -178.281E-03     475.612E-03         2.22719    -859.899E-03
              39               4        -2.69533        -1.07675    -878.782E-03     710.135E-03         2.06686    -699.566E-03
              40               1    -617.663E-03     113.610E-03        -1.14409     991.232E-03         1.80641    -863.162E-03
              40               2    -848.828E-03     333.827E-03        -2.39621         1.24372         1.75836    -815.113E-03
              40               3        -1.03082    -24.9800E-03        -1.18830         1.02940         1.54310    -599.856E-03
              40               4        -1.26199     195.236E-03        -2.44041         1.28189         1.49505    -551.807E-03
              41               1     507.500E-03    -676.036E-03    -448.170E-03        -4.08913         2.00376    -569.722E-03
              41               2     303.275E-03    -428.391E-03     780.823E-03        -1.35390         2.05129    -617.255E-03
              41               3         1.64676     191.608E-03    -396.437E-03        -4.11888         1.74017    -306.130E-03
              41               4         1.44254     439.253E-03     832.557E-03        -1.38365         1.78770    -353.663E-03
              42               1     829.469E-03     132.189E-03         1.17635    -135.499E-03         1.98255        -1.11078
              42               2     683.793E-03     266.486E-03     190.271E-03    -188.337E-03         2.14370        -1.27193
              42               3         3.05684         1.43867         1.33384    -254.280E-03         1.81923    -947.458E-03
              42               4         2.91116         1.57296     347.758E-03    -307.119E-03         1.98038        -1.10861
              43               1     906.835E-03     935.077E-03    -45.9176E-03     69.4005E-03         2.39717        -1.27509
              43               2     883.520E-03     956.268E-03    -217.050E-03     46.6214E-03         2.39859        -1.27651
              43               3         3.38298         3.40310    -17.6221E-03     95.2580E-03         2.37121        -1.24913
              43               4         3.35967         3.42429    -188.754E-03     72.4788E-03         2.37263        -1.25055
              44               1         1.14258         1.37900    -121.612E-03     262.803E-03         2.32425        -1.18993
              44               2         1.13090         1.38734    -307.873E-03     143.273E-03         2.26199        -1.12767
              44               3         4.43794         5.03014    -136.936E-03     354.211E-03         2.31257        -1.17825
              44               4         4.42625         5.03847    -323.197E-03     234.682E-03         2.25031        -1.11599
              45               1         1.46506         1.77688    -201.301E-03     304.341E-03         2.08665    -935.038E-03
              45               2         1.45613         1.78205    -396.898E-03     155.747E-03         2.00213    -850.517E-03
              45               3         5.69201         6.48680    -224.806E-03     425.730E-03         2.07843    -926.812E-03
              45               4         5.68307         6.49197    -420.402E-03     277.137E-03         1.99390    -842.291E-03
              46               1         1.83348         2.17589    -231.453E-03     348.381E-03         1.80539    -617.217E-03
              46               2         1.82998         2.17831    -290.605E-03     309.005E-03         1.71693    -528.753E-03
              46               3         7.04635         7.89426    -247.414E-03     484.072E-03         1.80193    -613.756E-03
              46               4         7.04284         7.89668    -306.567E-03     444.696E-03         1.71347    -525.292E-03
              47               1         2.17658         2.48119    -222.344E-03     304.928E-03         1.49935    -298.580E-03
              47               2         2.19998         2.44532    -693.093E-03    -363.389E-03         1.42245    -221.678E-03
              47               3         8.53248         9.27652    -216.237E-03     442.866E-03         1.53393    -333.154E-03
              47               4         8.55588         9.24065    -686.987E-03    -225.451E-03         1.45702    -256.253E-03
              48               1         2.65917         3.15800    -90.6673E-03     209.064E-03         1.09076     150.812E-03
              48               2         2.69240         3.15501         1.35015         1.52914     875.903E-03     365.666E-03
              48               3         9.42230         11.1489    -194.028E-03     474.024E-03         1.11189     129.684E-03
              48               4         9.45553         11.1459         1.24678         1.79410     897.032E-03     344.538E-03


  Minimum                               -9.45556        -11.1489        -2.44041        -4.11888     875.888E-03        -1.27961
      At Element                              33              33              40              41              33              38

          Int Pt                               3               4               4               3               1               1
  Maximum                                9.45553         11.1489         1.35015          1.7941         2.39859     365.666E-03
      At Element                              48              48              48              48              43              48

          Int Pt                               4               3               2               4               2               2


Field Output reported at integration points for region: BEAM-1.Region_2

         Element             Int           S.S11           S.S11           S.S22           S.S22           S.S12           S.S12
           Label              Pt          @Loc 1          @Loc 2          @Loc 1          @Loc 2          @Loc 1          @Loc 2
---------------------------------------------------------------------------------------------------------------------------------
               1               1     191.608E-03         1.64676        -4.11888    -396.437E-03     306.130E-03        -1.74017
               1               2     439.253E-03         1.44254        -1.38365     832.557E-03     353.663E-03        -1.78770
               1               3    -676.036E-03     507.500E-03        -4.08913    -448.170E-03     569.722E-03        -2.00376
               1               4    -428.391E-03     303.275E-03        -1.35390     780.823E-03     617.255E-03        -2.05129
               2               1         1.43867         3.05684    -254.280E-03         1.33384     947.458E-03        -1.81923
               2               2         1.57296         2.91116    -307.119E-03     347.758E-03         1.10861        -1.98038
               2               3     132.189E-03     829.469E-03    -135.499E-03         1.17635         1.11078        -1.98255
               2               4     266.486E-03     683.793E-03    -188.337E-03     190.271E-03         1.27193        -2.14370
               3               1         3.40310         3.38298     95.2580E-03    -17.6221E-03         1.24913        -2.37121
               3               2         3.42429         3.35967     72.4788E-03    -188.754E-03         1.25055        -2.37263
               3               3     935.077E-03     906.835E-03     69.4005E-03    -45.9176E-03         1.27509        -2.39717
               3               4     956.268E-03     883.520E-03     46.6214E-03    -217.050E-03         1.27651        -2.39859
               4               1         5.03014         4.43794     354.211E-03    -136.936E-03         1.17825        -2.31257
               4               2         5.03847         4.42625     234.682E-03    -323.197E-03         1.11599        -2.25031
               4               3         1.37900         1.14258     262.803E-03    -121.612E-03         1.18993        -2.32425
               4               4         1.38734         1.13090     143.273E-03    -307.873E-03         1.12767        -2.26199
               5               1         6.48680         5.69201     425.730E-03    -224.806E-03     926.812E-03        -2.07843
               5               2         6.49197         5.68307     277.137E-03    -420.402E-03     842.291E-03        -1.99390
               5               3         1.77688         1.46506     304.341E-03    -201.301E-03     935.038E-03        -2.08665
               5               4         1.78205         1.45613     155.747E-03    -396.898E-03     850.517E-03        -2.00213
               6               1         7.89426         7.04635     484.072E-03    -247.414E-03     613.756E-03        -1.80193
               6               2         7.89668         7.04284     444.696E-03    -306.567E-03     525.292E-03        -1.71347
               6               3         2.17589         1.83348     348.381E-03    -231.453E-03     617.217E-03        -1.80539
               6               4         2.17831         1.82998     309.005E-03    -290.605E-03     528.753E-03        -1.71693
               7               1         9.27652         8.53248     442.866E-03    -216.237E-03     333.154E-03        -1.53393
               7               2         9.24065         8.55588    -225.451E-03    -686.987E-03     256.253E-03        -1.45702
               7               3         2.48119         2.17658     304.928E-03    -222.344E-03     298.580E-03        -1.49935
               7               4         2.44532         2.19998    -363.389E-03    -693.093E-03     221.678E-03        -1.42245
               8               1         11.1489         9.42230     474.024E-03    -194.028E-03    -129.684E-03        -1.11189
               8               2         11.1459         9.45553         1.79410         1.24678    -344.538E-03    -897.032E-03
               8               3         3.15800         2.65917     209.064E-03    -90.6673E-03    -150.812E-03        -1.09076
               8               4         3.15501         2.69240         1.52914         1.35015    -365.666E-03    -875.903E-03


  Minimum                           -676.036E-03     303.275E-03        -4.11888    -693.093E-03    -365.666E-03        -2.39859
      At Element                               1               1               1               7               8               3

          Int Pt                               3               4               1               4               4               4
  Maximum                                11.1489         9.45553          1.7941         1.35015         1.27651    -875.903E-03
      At Element                               8               8               8               8               3               8

          Int Pt                               1               2               2               4               4               4


Field Output reported at integration points for region: BEAM-1.Region_3

         Element             Int           S.S11           S.S11           S.S22           S.S22           S.S12           S.S12
           Label              Pt          @Loc 1          @Loc 2          @Loc 1          @Loc 2          @Loc 1          @Loc 2
---------------------------------------------------------------------------------------------------------------------------------
               9               1        -1.26199     195.236E-03        -2.44041         1.28189         1.49505    -551.807E-03
               9               2        -1.03082    -24.9800E-03        -1.18830         1.02940         1.54310    -599.856E-03
               9               3    -848.828E-03     333.827E-03        -2.39621         1.24372         1.75836    -815.113E-03
               9               4    -617.663E-03     113.610E-03        -1.14409     991.232E-03         1.80641    -863.162E-03
              10               1        -2.69533        -1.07675    -878.782E-03     710.135E-03         2.06686    -699.566E-03
              10               2        -2.55252        -1.21445    -178.281E-03     475.612E-03         2.22719    -859.899E-03
              10               3        -1.02568    -323.287E-03    -728.084E-03     585.977E-03         2.23049    -863.195E-03
              10               4    -882.877E-03    -460.989E-03    -27.5835E-03     351.455E-03         2.39082        -1.02353
              11               1        -3.39738        -3.41870     48.5420E-03    -65.8480E-03         2.36840        -1.25151
              11               2        -3.37456        -3.44004     189.284E-03    -72.2917E-03         2.37074        -1.25385
              11               3    -860.660E-03    -895.370E-03     78.2613E-03    -40.1451E-03         2.39416        -1.27726
              11               4    -837.847E-03    -916.712E-03     219.003E-03    -46.5888E-03         2.39650        -1.27961
              12               1        -4.43568        -5.02751     125.359E-03    -365.360E-03         2.31267        -1.17918
              12               2        -4.42389        -5.03573     322.029E-03    -235.376E-03         2.24972        -1.11623
              12               3        -1.15345        -1.38552     109.316E-03    -273.476E-03         2.32435        -1.19086
              12               4        -1.14166        -1.39373     305.986E-03    -143.492E-03         2.26139        -1.12790
              13               1        -5.69249        -6.48626     227.446E-03    -422.555E-03         2.07840    -925.986E-03
              13               2        -5.68352        -6.49152     420.765E-03    -276.679E-03         1.99421    -841.797E-03
              13               3        -1.46395        -1.77664     204.233E-03    -301.444E-03         2.08670    -934.288E-03
              13               4        -1.45497        -1.78190     397.553E-03    -155.567E-03         2.00251    -850.099E-03
              14               1        -7.04631        -7.89469     247.156E-03    -484.730E-03         1.80192    -614.062E-03
              14               2        -7.04283        -7.89709     306.558E-03    -444.926E-03         1.71339    -525.527E-03
              14               3        -1.83315        -2.17562     231.139E-03    -348.974E-03         1.80535    -617.491E-03
              14               4        -1.82967        -2.17801     290.541E-03    -309.169E-03         1.71682    -528.957E-03
              15               1        -8.53239        -9.27646     216.240E-03    -442.886E-03         1.53398    -333.136E-03
              15               2        -8.55580        -9.24057     686.987E-03     225.490E-03         1.45706    -256.218E-03
              15               3        -2.17678        -2.48131     222.329E-03    -304.936E-03         1.49939    -298.551E-03
              15               4        -2.20019        -2.44543     693.076E-03     363.440E-03         1.42248    -221.633E-03
              16               1        -9.42233        -11.1489     194.035E-03    -473.958E-03         1.11185     129.700E-03
              16               2        -9.45556        -11.1459        -1.24678        -1.79408     897.010E-03     344.542E-03
              16               3        -2.65912        -3.15797     90.6848E-03    -209.007E-03         1.09073     150.822E-03
              16               4        -2.69235        -3.15499        -1.35013        -1.52913     875.888E-03     365.664E-03


  Minimum                               -9.45556        -11.1489        -2.44041        -1.79408     875.888E-03        -1.27961
      At Element                              16              16               9              16              16              11

          Int Pt                               2               1               1               2               4               4
  Maximum                           -617.663E-03     333.827E-03     693.076E-03         1.28189          2.3965     365.664E-03
      At Element                               9               9              15               9              11              16

          Int Pt                               4               3               4               1               4               4


Field Output reported at integration points for region: BEAM-1.Region_4

         Element             Int           S.S11           S.S11           S.S22           S.S22           S.S12           S.S12
           Label              Pt          @Loc 1          @Loc 2          @Loc 1          @Loc 2          @Loc 1          @Loc 2
---------------------------------------------------------------------------------------------------------------------------------
              17               1        -1.17517         1.05482        -3.77944         3.82796         1.95107        -2.02847
              17               2    -705.456E-03     584.619E-03        -2.23545         2.23891         1.93636        -2.01377
              17               3        -1.21804         1.05397        -3.78599         3.83402         2.22521        -2.30261
              17               4    -748.327E-03     583.767E-03        -2.24199         2.24497         2.21050        -2.28791
              18               1    -588.540E-03     156.099E-03        -1.35910         1.29374         2.03237        -2.01249
              18               2    -311.807E-03    -120.479E-03    -429.860E-03     378.608E-03         2.01795        -1.99807
              18               3    -506.616E-03     279.221E-03        -1.36416         1.30104         2.19376        -2.17387
              18               4    -229.883E-03     2.64257E-03    -434.917E-03     385.911E-03         2.17934        -2.15945
              19               1     135.247E-03    -119.835E-03     72.4869E-03    -39.6258E-03         1.98948        -1.92240
              19               2     212.773E-03    -197.521E-03     323.894E-03    -305.592E-03         1.92713        -1.86005
              19               3    -24.3927E-03    -101.330E-03     44.9924E-03    -13.6771E-03         2.03475        -1.96767
              19               4     53.1337E-03    -179.016E-03     296.400E-03    -279.644E-03         1.97240        -1.90532
              20               1     221.223E-03    -220.267E-03     445.142E-03    -421.793E-03         1.77258        -1.78230
              20               2     246.198E-03    -245.514E-03     516.431E-03    -517.911E-03         1.72150        -1.73122
              20               3     159.704E-03    -135.851E-03     423.377E-03    -399.777E-03         1.78723        -1.79695
              20               4     184.679E-03    -161.098E-03     494.666E-03    -495.896E-03         1.73615        -1.74587
              21               1     357.546E-03    -358.929E-03     593.849E-03    -604.628E-03         1.53776        -1.53811
              21               2     376.041E-03    -377.313E-03     660.381E-03    -661.027E-03         1.43726        -1.43762
              21               3     213.954E-03    -215.387E-03     550.779E-03    -561.558E-03         1.54852        -1.54887
              21               4     232.449E-03    -233.771E-03     617.311E-03    -617.958E-03         1.44802        -1.44837
              22               1     354.277E-03    -353.761E-03     672.022E-03    -669.431E-03         1.21143        -1.21072
              22               2     350.975E-03    -350.482E-03     659.959E-03    -659.554E-03         1.12539        -1.12467
              22               3     230.646E-03    -231.550E-03     635.138E-03    -632.562E-03         1.20951        -1.20880
              22               4     227.343E-03    -228.271E-03     623.075E-03    -622.686E-03         1.12347        -1.12275
              23               1     443.067E-03    -443.176E-03     650.010E-03    -650.262E-03     859.234E-03    -859.483E-03
              23               2     412.729E-03    -412.836E-03     548.932E-03    -549.081E-03     719.536E-03    -719.785E-03
              23               3     243.768E-03    -243.338E-03     590.143E-03    -590.389E-03     841.536E-03    -841.785E-03
              23               4     213.429E-03    -212.998E-03     489.064E-03    -489.207E-03     701.838E-03    -702.087E-03
              24               1     401.344E-03    -401.357E-03     429.091E-03    -429.232E-03     362.552E-03    -362.503E-03
              24               2     326.831E-03    -326.843E-03     180.757E-03    -180.807E-03     209.045E-03    -208.997E-03
              24               3     182.001E-03    -182.110E-03     363.302E-03    -363.444E-03     319.085E-03    -319.037E-03
              24               4     107.488E-03    -107.595E-03     114.968E-03    -115.019E-03     165.578E-03    -165.530E-03
              25               1         1.05397        -1.21804         3.83402        -3.78599         2.30261        -2.22521
              25               2     583.767E-03    -748.327E-03         2.24497        -2.24199         2.28791        -2.21050
              25               3         1.05482        -1.17517         3.82796        -3.77944         2.02847        -1.95107
              25               4     584.619E-03    -705.456E-03         2.23891        -2.23545         2.01377        -1.93636
              26               1     279.221E-03    -506.616E-03         1.30104        -1.36416         2.17387        -2.19376
              26               2     2.64257E-03    -229.883E-03     385.911E-03    -434.917E-03         2.15945        -2.17934
              26               3     156.099E-03    -588.540E-03         1.29374        -1.35910         2.01249        -2.03237
              26               4    -120.479E-03    -311.807E-03     378.608E-03    -429.860E-03         1.99807        -2.01795
              27               1    -101.330E-03    -24.3927E-03    -13.6771E-03     44.9924E-03         1.96767        -2.03475
              27               2    -179.016E-03     53.1337E-03    -279.644E-03     296.400E-03         1.90532        -1.97240
              27               3    -119.835E-03     135.247E-03    -39.6258E-03     72.4869E-03         1.92240        -1.98948
              27               4    -197.521E-03     212.773E-03    -305.592E-03     323.894E-03         1.86005        -1.92713
              28               1    -135.851E-03     159.704E-03    -399.777E-03     423.377E-03         1.79695        -1.78723
              28               2    -161.098E-03     184.679E-03    -495.896E-03     494.666E-03         1.74587        -1.73615
              28               3    -220.267E-03     221.223E-03    -421.793E-03     445.142E-03         1.78230        -1.77258
              28               4    -245.514E-03     246.198E-03    -517.911E-03     516.431E-03         1.73122        -1.72150
              29               1    -215.387E-03     213.954E-03    -561.558E-03     550.779E-03         1.54887        -1.54852
              29               2    -233.771E-03     232.449E-03    -617.958E-03     617.311E-03         1.44837        -1.44802
              29               3    -358.929E-03     357.546E-03    -604.628E-03     593.849E-03         1.53811        -1.53776
              29               4    -377.313E-03     376.041E-03    -661.027E-03     660.381E-03         1.43762        -1.43726
              30               1    -231.550E-03     230.646E-03    -632.562E-03     635.138E-03         1.20880        -1.20951
              30               2    -228.271E-03     227.343E-03    -622.686E-03     623.075E-03         1.12275        -1.12347
              30               3    -353.761E-03     354.277E-03    -669.431E-03     672.022E-03         1.21072        -1.21143
              30               4    -350.482E-03     350.975E-03    -659.554E-03     659.959E-03         1.12467        -1.12539
              31               1    -243.338E-03     243.768E-03    -590.389E-03     590.143E-03     841.785E-03    -841.536E-03
              31               2    -212.998E-03     213.429E-03    -489.207E-03     489.064E-03     702.087E-03    -701.838E-03
              31               3    -443.176E-03     443.067E-03    -650.262E-03     650.010E-03     859.483E-03    -859.234E-03
              31               4    -412.836E-03     412.729E-03    -549.081E-03     548.932E-03     719.785E-03    -719.536E-03
              32               1    -182.110E-03     182.001E-03    -363.444E-03     363.302E-03     319.037E-03    -319.085E-03
              32               2    -107.595E-03     107.488E-03    -115.019E-03     114.968E-03     165.530E-03    -165.578E-03
              32               3    -401.357E-03     401.344E-03    -429.232E-03     429.091E-03     362.503E-03    -362.552E-03
              32               4    -326.843E-03     326.831E-03    -180.807E-03     180.757E-03     208.997E-03    -209.045E-03


  Minimum                               -1.21804        -1.21804        -3.78599        -3.78599      165.53E-03        -2.30261
      At Element                              17              25              17              25              32              17

          Int Pt                               3               1               3               1               2               3
  Maximum                                1.05482         1.05482         3.83402         3.83402         2.30261     -165.53E-03
      At Element                              25              17              25              17              25              24

          Int Pt                               3               1               1               3               1               4


********************************************************************************
Field Output Report, written Fri Nov 18 15:52:52 2016

Source 1
---------

   ODB: F:/project ehsan/New folder/main model - 1/Job-1.odb
   Step: Step-1
   Frame: Increment      1: Step Time =    1.000

Loc 1 : Nodal values from source 1

Output sorted by column "Node Label".

Field Output reported at nodes for part: BEAM-1

            Node            U.U1            U.U2            U.U3
           Label          @Loc 1          @Loc 1          @Loc 1
-----------------------------------------------------------------
               1     28.0035E-03    -153.356E-03     264.160E-03
               2     5.84069E-36    -1.13039E-36     11.2546E-39
               3    -7.22229E-42     711.994E-39     20.7785E-42
               4    -138.249E-06    -151.800E-03     13.4217E-06
               5    -27.2138E-03    -151.480E-03    -264.138E-03
               6    -5.84068E-36    -1.13037E-36    -11.2244E-39
               7    -7.22229E-42    -711.994E-39    -20.7785E-42
               8    -138.249E-06     151.800E-03    -13.4217E-06
               9    -27.2138E-03     151.480E-03     264.138E-03
              10    -5.84068E-36     1.13037E-36     11.2244E-39
              11     5.84069E-36     1.13039E-36    -11.2546E-39
              12     28.0035E-03     153.356E-03    -264.160E-03
              13     27.1654E-03    -123.860E-03     233.449E-03
              14     25.7626E-03    -97.0045E-03     193.262E-03
              15     23.6140E-03    -71.6336E-03     145.767E-03
              16     20.6187E-03    -48.8448E-03     101.010E-03
              17     16.7615E-03    -29.4806E-03     62.8906E-03
              18     12.0436E-03    -14.3270E-03     32.5712E-03
              19     6.36769E-03    -4.58664E-03     9.71867E-03
              20     12.6647E-09    -3.39507E-03    -19.5278E-09
              21    -48.5636E-09    -13.6270E-03    -41.8722E-09
              22     94.5264E-09    -28.8231E-03     429.930E-09
              23     195.612E-09    -48.3359E-03    -1.75664E-06
              24    -2.50797E-06    -71.2567E-03     3.60149E-06
              25     12.2785E-06    -96.7113E-03     6.74332E-06
              26    -110.141E-06    -124.015E-03     3.69914E-06
              27    -26.9475E-03    -124.126E-03    -233.436E-03
              28    -25.7793E-03    -97.0231E-03    -193.255E-03
              29    -23.6103E-03    -71.6264E-03    -145.761E-03
              30    -20.6191E-03    -48.8466E-03    -101.010E-03
              31    -16.7616E-03    -29.4803E-03    -62.8923E-03
              32    -12.0435E-03    -14.3270E-03    -32.5709E-03
              33    -6.36770E-03    -4.58666E-03    -9.71863E-03
              34     2.70310E-42             -0.              0.
              35     12.6647E-09     3.39507E-03     19.5278E-09
              36    -48.5636E-09     13.6270E-03     41.8722E-09
              37     94.5264E-09     28.8231E-03    -429.930E-09
              38     195.612E-09     48.3359E-03     1.75664E-06
              39    -2.50797E-06     71.2567E-03    -3.60149E-06
              40     12.2785E-06     96.7113E-03    -6.74332E-06
              41    -110.141E-06     124.015E-03    -3.69914E-06
              42    -120.097E-06     7.74490E-15     416.076E-18
              43    -26.9475E-03     124.126E-03     233.436E-03
              44    -25.7793E-03     97.0231E-03     193.255E-03
              45    -23.6103E-03     71.6264E-03     145.761E-03
              46    -20.6191E-03     48.8466E-03     101.010E-03
              47    -16.7616E-03     29.4803E-03     62.8923E-03
              48    -12.0435E-03     14.3270E-03     32.5709E-03
              49    -6.36770E-03     4.58666E-03     9.71863E-03
              50     6.36769E-03     4.58664E-03    -9.71867E-03
              51     12.0436E-03     14.3270E-03    -32.5712E-03
              52     16.7615E-03     29.4806E-03    -62.8906E-03
              53     20.6187E-03     48.8448E-03    -101.010E-03
              54     23.6140E-03     71.6336E-03    -145.767E-03
              55     25.7626E-03     97.0045E-03    -193.262E-03
              56     27.1654E-03     123.860E-03    -233.449E-03
              57    -73.1175E-06     6.23963E-15     377.912E-18
              58    -39.1938E-06     4.00229E-15     331.934E-18
              59     6.93183E-06     2.49964E-15     284.684E-18
              60    -247.014E-09     1.71805E-15     236.803E-18
              61    -326.459E-09     1.00128E-15     156.001E-18
              62     143.102E-09     444.837E-18     87.6393E-18
              63    -28.3665E-09     162.610E-18     29.2992E-18


  Minimum           -27.2138E-03    -153.356E-03     -264.16E-03

         At Node               5               1              12
  Maximum            28.0035E-03     153.356E-03      264.16E-03

         At Node               1              12               1


