********************************************************************************
Field Output Report, written Fri Nov 18 19:58:22 2016

Source 1
---------

   ODB: F:/project ehsan/main model - square mesh 2/Job-1.odb
   Step: Step-1
   Frame: Increment      1: Step Time =    1.000

Loc 1 : Integration point values at shell < MATERIAL-1 > < 5 section points > from source 1 : SNEG, (fraction = -1.0)
Loc 2 : Integration point values at shell < MATERIAL-1 > < 5 section points > from source 1 : SPOS, (fraction = 1.0)

Output sorted by column "Element Label".

Field Output reported at integration points for region: BEAM-1.Region_1

         Element             Int           S.S11           S.S11           S.S22           S.S22           S.S12           S.S12
           Label              Pt          @Loc 1          @Loc 2          @Loc 1          @Loc 2          @Loc 1          @Loc 2
---------------------------------------------------------------------------------------------------------------------------------
              33               1        -7.63549        -7.32556        -2.46149        -2.45652         1.26425     725.186E-03
              33               2        -7.57155        -7.34088    -109.596E-03    -368.843E-03         1.49336     496.069E-03
              33               3        -14.0709        -15.0702        -2.34276        -2.73056         1.31048     678.948E-03
              33               4        -14.0069        -15.0855     9.13304E-03    -642.885E-03         1.53960     449.831E-03
              34               1        -6.23708        -6.28507     987.076E-03     518.520E-03         1.62915    -30.4404E-03
              34               2        -6.22865        -6.31060     262.711E-03    -319.057E-03         1.67445    -75.7357E-03
              34               3        -12.4465        -12.7533     956.472E-03     410.267E-03         1.64896    -50.2526E-03
              34               4        -12.4381        -12.7788     232.107E-03    -427.310E-03         1.69426    -95.5478E-03
              35               1        -5.28197        -5.19201     340.851E-03    -225.610E-03         1.99651    -209.473E-03
              35               2        -5.28446        -5.19321     170.201E-03    -391.921E-03         2.11011    -323.072E-03
              35               3        -10.4494        -11.0086     378.069E-03    -383.135E-03         1.99575    -208.713E-03
              35               4        -10.4519        -11.0098     207.419E-03    -549.446E-03         2.10935    -322.313E-03
              36               1        -4.20481        -4.34394     465.524E-03    -132.736E-03         2.30488    -558.576E-03
              36               2        -4.22196        -4.33269     148.745E-03    -354.853E-03         2.37563    -629.326E-03
              36               3        -8.47283        -9.01625     477.206E-03    -242.341E-03         2.28831    -542.010E-03
              36               4        -8.48999        -9.00500     160.427E-03    -464.458E-03         2.35906    -612.760E-03
              37               1        -3.31988        -3.33283     346.617E-03    -81.8717E-03         2.54858    -827.847E-03
              37               2        -3.32918        -3.32930     62.2950E-03    -323.420E-03         2.61686    -896.130E-03
              37               3        -6.59608        -6.99921     367.124E-03    -178.421E-03         2.54109    -820.361E-03
              37               4        -6.60537        -6.99568     82.8026E-03    -419.969E-03         2.60938    -888.644E-03
              38               1        -2.40679        -2.33365     280.438E-03    -1.12721E-03         2.69051    -976.655E-03
              38               2        -2.43922        -2.30489     10.7976E-03    -66.8428E-03         2.68775    -973.900E-03
              38               3        -4.91996        -4.83107     250.636E-03    -26.2061E-03         2.65482    -940.968E-03
              38               4        -4.95238        -4.80232    -19.0040E-03    -91.9216E-03         2.65207    -938.213E-03
              39               1        -1.79819        -1.31075     36.0859E-03     428.900E-03         2.71744    -699.730E-03
              39               2        -1.93526        -1.18069    -728.815E-03     554.456E-03         2.55700    -539.287E-03
              39               3        -3.42621        -2.02195    -114.247E-03     553.612E-03         2.56161    -543.900E-03
              39               4        -3.56328        -1.89189    -879.148E-03     679.168E-03         2.40117    -383.457E-03
              40               1    -884.801E-03    -175.430E-03        -1.11175     972.053E-03         2.06430    -596.864E-03
              40               2        -1.12706     48.4069E-03        -2.72955     907.900E-03         2.01770    -550.269E-03
              40               3        -1.27138    -295.747E-03        -1.15446         1.00922         1.79241    -324.975E-03
              40               4        -1.51364    -71.9101E-03        -2.77227     945.063E-03         1.74581    -278.379E-03
              41               1     229.268E-03    -961.456E-03    -781.519E-03        -4.42495         1.74441    -834.566E-03
              41               2     36.1361E-03    -717.431E-03     813.168E-03        -1.37307         1.79340    -883.553E-03
              41               3         1.39511    -75.5388E-03    -728.294E-03        -4.45570         1.48940    -579.558E-03
              41               4         1.20198     168.486E-03     866.393E-03        -1.40383         1.53839    -628.545E-03
              42               1    -80.1136E-03    -725.211E-03         1.17562    -167.020E-03         1.65603        -1.43468
              42               2    -231.526E-03    -583.279E-03     253.940E-03    -110.892E-03         1.81708        -1.59573
              42               3         2.18889     623.529E-03         1.33348    -285.247E-03         1.48491        -1.26357
              42               4         2.03748     765.461E-03     411.792E-03    -229.119E-03         1.64596        -1.42461
              43               1    -671.721E-03    -474.446E-03    -113.381E-03     42.7028E-03         2.10358        -1.57845
              43               2    -685.424E-03    -460.665E-03    -155.616E-03     92.0830E-03         2.10459        -1.57946
              43               3         1.82798         2.01948    -85.1681E-03     69.1843E-03         2.08754        -1.56242
              43               4         1.81428         2.03326    -127.402E-03     118.564E-03         2.08855        -1.56343
              44               1        -1.03315    -564.771E-03    -168.633E-03     212.859E-03         2.03173        -1.48466
              44               2        -1.04733    -551.758E-03    -267.242E-03     204.894E-03         1.97480        -1.42772
              44               3         2.26825         3.06197    -179.493E-03     299.602E-03         2.01587        -1.46879
              44               4         2.25407         3.07498    -278.102E-03     291.637E-03         1.95893        -1.41186
              45               1        -1.29295    -779.170E-03    -256.789E-03     250.931E-03         1.79772        -1.24000
              45               2        -1.29371    -779.993E-03    -328.926E-03     178.579E-03         1.69976        -1.14204
              45               3         2.89451         3.96807    -291.824E-03     383.827E-03         1.79776        -1.24004
              45               4         2.89375         3.96724    -363.961E-03     311.475E-03         1.69980        -1.14208
              46               1        -1.61783    -841.701E-03    -292.391E-03     305.434E-03         1.50064    -911.635E-03
              46               2        -1.62232    -835.683E-03    -240.295E-03     392.564E-03         1.43724    -848.237E-03
              46               3         3.64075         4.77915    -287.151E-03     419.356E-03         1.49451    -905.504E-03
              46               4         3.63625         4.78517    -235.056E-03     506.486E-03         1.43111    -842.106E-03
              47               1        -1.87529        -1.34810    -181.962E-03     290.807E-03         1.32430    -521.396E-03
              47               2        -1.83691        -1.39432    -399.094E-03    -208.309E-03         1.21577    -412.871E-03
              47               3         4.62681         5.77413    -200.370E-03     458.442E-03         1.37365    -570.743E-03
              47               4         4.66518         5.72791    -417.502E-03    -40.6742E-03         1.26512    -462.218E-03
              48               1        -2.25325        -1.02491    -290.949E-03     49.2287E-03     688.125E-03    -194.435E-03
              48               2        -2.25074        -1.01556     238.789E-03     601.753E-03     487.545E-03     6.14432E-03
              48               3         4.83770         7.21221    -378.930E-03     305.097E-03     684.137E-03    -190.447E-03
              48               4         4.84021         7.22155     150.807E-03     857.621E-03     483.558E-03     10.1320E-03


  Minimum                               -14.0709        -15.0855        -2.77227         -4.4557     483.558E-03        -1.59573
      At Element                              33              33              40              41              48              42

          Int Pt                               3               4               4               3               4               2
  Maximum                                4.84021         7.22155         1.33348         1.00922         2.71744     725.186E-03
      At Element                              48              48              42              40              39              33

          Int Pt                               4               4               3               3               1               1


Field Output reported at integration points for region: BEAM-1.Region_2

         Element             Int           S.S11           S.S11           S.S22           S.S22           S.S12           S.S12
           Label              Pt          @Loc 1          @Loc 2          @Loc 1          @Loc 2          @Loc 1          @Loc 2
---------------------------------------------------------------------------------------------------------------------------------
               1               1     396.732E-03         1.92467        -3.73050    -55.6568E-03     49.6392E-03        -2.04962
               1               2     631.877E-03         1.72440        -1.41279     810.664E-03     83.6208E-03        -2.08360
               1               3    -303.092E-03         1.03067        -3.71011    -93.5124E-03     303.632E-03        -2.30361
               1               4    -67.9470E-03     830.394E-03        -1.39240     772.808E-03     337.614E-03        -2.33759
               2               1         2.24161         3.99320    -285.595E-03         1.32778     619.708E-03        -2.11685
               2               2         2.38147         3.84091    -365.878E-03     273.645E-03     780.274E-03        -2.27741
               2               3     979.759E-03         1.81383    -166.812E-03         1.17131     790.132E-03        -2.28727
               2               4         1.11962         1.66154    -247.095E-03     117.172E-03     950.698E-03        -2.44784
               3               1         4.82762         4.93379     161.944E-03     23.4104E-03     958.364E-03        -2.65816
               3               2         4.84692         4.91013     35.0351E-03    -246.714E-03     968.072E-03        -2.66787
               3               3         2.35490         2.40560     142.877E-03    -12.2978E-03     983.427E-03        -2.68323
               3               4         2.37421         2.38194     15.9690E-03    -282.422E-03     993.134E-03        -2.69293
               4               1         6.99525         6.60187     407.514E-03    -80.6037E-03     887.125E-03        -2.61117
               4               2         7.00218         6.58927     180.996E-03    -372.247E-03     811.659E-03        -2.53570
               4               3         3.31204         3.34990     304.848E-03    -53.8983E-03     898.522E-03        -2.62257
               4               4         3.31897         3.33730     78.3304E-03    -345.542E-03     823.056E-03        -2.54710
               5               1         9.00550         8.49061     468.274E-03    -163.999E-03     613.372E-03        -2.35911
               5               2         9.01459         8.47562     239.022E-03    -473.545E-03     545.970E-03        -2.29170
               5               3         4.34110         4.21136     361.521E-03    -155.205E-03     627.424E-03        -2.37316
               5               4         4.35019         4.19637     132.269E-03    -464.751E-03     560.021E-03        -2.30576
               6               1         11.0082         10.4533     545.751E-03    -203.313E-03     320.859E-03        -2.10795
               6               2         11.0086         10.4492     384.518E-03    -379.469E-03     206.273E-03        -1.99337
               6               3         5.18922         5.28907     387.386E-03    -165.245E-03     323.471E-03        -2.11056
               6               4         5.18961         5.28499     226.153E-03    -341.401E-03     208.885E-03        -1.99598
               7               1         12.7799         12.4370     429.731E-03    -234.706E-03     96.6771E-03        -1.69538
               7               2         12.7536         12.4462    -410.602E-03    -956.145E-03     51.4083E-03        -1.65011
               7               3         6.31173         6.22741     321.500E-03    -265.333E-03     75.8707E-03        -1.67458
               7               4         6.28534         6.23669    -518.833E-03    -986.772E-03     30.6019E-03        -1.62931
               8               1         15.0849         14.0075     641.670E-03    -7.88532E-03    -450.383E-03        -1.53902
               8               2         15.0699         14.0711         2.73018         2.34313    -679.387E-03        -1.31002
               8               3         7.34061         7.57172     367.725E-03     110.747E-03    -496.320E-03        -1.49308
               8               4         7.32555         7.63540         2.45624         2.46176    -725.324E-03        -1.26408


  Minimum                           -303.092E-03     830.394E-03         -3.7305    -986.772E-03    -725.324E-03        -2.69293
      At Element                               1               1               1               7               8               3

          Int Pt                               3               4               1               4               4               4
  Maximum                                15.0849         14.0711         2.73018         2.46176     993.134E-03        -1.26408
      At Element                               8               8               8               8               3               8

          Int Pt                               1               2               2               4               4               4


Field Output reported at integration points for region: BEAM-1.Region_3

         Element             Int           S.S11           S.S11           S.S22           S.S22           S.S12           S.S12
           Label              Pt          @Loc 1          @Loc 2          @Loc 1          @Loc 2          @Loc 1          @Loc 2
---------------------------------------------------------------------------------------------------------------------------------
               9               1    -984.078E-03     400.361E-03        -2.09963         1.67026         1.18560    -808.298E-03
               9               2    -748.959E-03     167.644E-03        -1.21019         1.00025         1.24720    -869.899E-03
               9               3    -325.663E-03     706.770E-03        -2.04155         1.62275         1.45850        -1.08120
               9               4    -90.5430E-03     474.054E-03        -1.15211     952.732E-03         1.52010        -1.14280
              10               1        -1.75897    -273.806E-03    -884.845E-03     678.820E-03         1.76924        -1.02732
              10               2        -1.62278    -405.940E-03    -252.394E-03     416.853E-03         1.93016        -1.18824
              10               3    -41.3187E-03     524.283E-03    -733.133E-03     554.664E-03         1.92576        -1.18384
              10               4     94.8729E-03     392.149E-03    -100.683E-03     292.697E-03         2.08669        -1.34476
              11               1        -1.84658        -1.99418     89.5746E-03     837.621E-06         2.08145        -1.54227
              11               2        -1.82411        -2.01741     131.325E-03    -109.735E-03         2.07550        -1.53633
              11               3     638.102E-03     524.455E-03     111.881E-03     33.3319E-03         2.10810        -1.56893
              11               4     660.574E-03     501.229E-03     153.631E-03    -77.2412E-03         2.10216        -1.56298
              12               1        -2.27175        -3.06240     181.692E-03    -312.057E-03         2.01408        -1.47031
              12               2        -2.26088        -3.07202     272.980E-03    -289.062E-03         1.96432        -1.42056
              12               3         1.05387     547.515E-03     177.029E-03    -231.430E-03         2.02603        -1.48226
              12               4         1.06474     537.897E-03     268.317E-03    -208.435E-03         1.97628        -1.43251
              13               1        -2.89389        -3.96757     288.252E-03    -380.011E-03         1.79772        -1.23943
              13               2        -2.89097        -3.96890     367.623E-03    -314.793E-03         1.69641        -1.13812
              13               3         1.28235     787.580E-03     250.329E-03    -244.264E-03         1.80019        -1.24190
              13               4         1.28527     786.249E-03     329.700E-03    -179.045E-03         1.69889        -1.14059
              14               1        -3.63940        -4.78077     291.257E-03    -423.051E-03         1.49590    -906.958E-03
              14               2        -3.63650        -4.78520     233.656E-03    -505.103E-03         1.43349    -844.546E-03
              14               3         1.62244     837.710E-03     297.347E-03    -309.969E-03         1.50018    -911.237E-03
              14               4         1.62534     833.278E-03     239.745E-03    -392.022E-03         1.43777    -848.825E-03
              15               1        -4.62792        -5.77303     197.771E-03    -456.021E-03         1.37252    -569.613E-03
              15               2        -4.66545        -5.72766     417.829E-03     40.3392E-03         1.26397    -461.062E-03
              15               3         1.87404         1.34923     179.340E-03    -288.364E-03         1.32417    -521.260E-03
              15               4         1.83652         1.39460     399.397E-03     207.996E-03         1.21562    -412.709E-03
              16               1        -4.83719        -7.21278     380.178E-03    -306.312E-03     684.716E-03    -190.999E-03
              16               2        -4.83995        -7.22187    -150.440E-03    -857.998E-03     484.024E-03     9.69339E-03
              16               3         2.25342         1.02464     292.099E-03    -50.3468E-03     688.403E-03    -194.686E-03
              16               4         2.25065         1.01555    -238.519E-03    -602.033E-03     487.711E-03     6.00648E-03


  Minimum                               -4.83995        -7.22187        -2.09963    -857.998E-03     484.024E-03        -1.56893
      At Element                              16              16               9              16              16              11

          Int Pt                               2               2               1               2               2               3
  Maximum                                2.25342          1.3946     417.829E-03         1.67026          2.1081     9.69339E-03
      At Element                              16              15              15               9              11              16

          Int Pt                               3               4               2               1               3               2


Field Output reported at integration points for region: BEAM-1.Region_4

         Element             Int           S.S11           S.S11           S.S22           S.S22           S.S12           S.S12
           Label              Pt          @Loc 1          @Loc 2          @Loc 1          @Loc 2          @Loc 1          @Loc 2
---------------------------------------------------------------------------------------------------------------------------------
              17               1        -1.17092         1.05907        -6.12581         1.48159     599.056E-03        -3.38048
              17               2    -676.867E-03     613.209E-03        -2.35914         2.11522     584.350E-03        -3.36578
              17               3        -1.44076     831.242E-03        -6.13484         1.48517     873.197E-03        -3.65462
              17               4    -946.711E-03     385.384E-03        -2.36817         2.11880     858.491E-03        -3.63992
              18               1     203.095E-03     947.734E-03    -730.722E-03         1.92212     850.680E-03        -3.19418
              18               2     473.239E-03     664.567E-03    -403.005E-03     405.463E-03     836.261E-03        -3.17976
              18               3    -414.397E-03     371.440E-03    -743.440E-03         1.92176         1.01206        -3.35556
              18               4    -144.253E-03     88.2730E-03    -415.722E-03     405.105E-03     997.643E-03        -3.34114
              19               1         1.27559         1.02051    -9.47275E-03    -121.585E-03     685.600E-03        -3.22628
              19               2         1.35365     943.358E-03     290.450E-03    -339.037E-03     623.250E-03        -3.16393
              19               3     322.051E-03     245.113E-03    -45.6629E-03    -104.332E-03     730.871E-03        -3.27155
              19               4     400.108E-03     167.959E-03     254.260E-03    -321.783E-03     668.520E-03        -3.20920
              20               1         1.85532         1.41383     492.693E-03    -374.241E-03     502.501E-03        -3.05238
              20               2         1.87956         1.38785     496.915E-03    -537.427E-03     451.424E-03        -3.00130
              20               3     583.345E-03     287.790E-03     457.670E-03    -365.484E-03     517.150E-03        -3.06703
              20               4     607.585E-03     261.808E-03     461.892E-03    -528.670E-03     466.072E-03        -3.01595
              21               1         2.45276         1.73629     624.932E-03    -573.545E-03     254.365E-03        -2.82151
              21               2         2.47076         1.71741     646.164E-03    -675.245E-03     153.868E-03        -2.72101
              21               3     773.758E-03     344.418E-03     565.045E-03    -547.293E-03     265.121E-03        -2.83227
              21               4     791.757E-03     325.537E-03     586.276E-03    -648.992E-03     164.625E-03        -2.73177
              22               1         2.90502         2.19699     713.583E-03    -627.870E-03    -54.3193E-03        -2.47647
              22               2         2.90123         2.19977     656.711E-03    -662.803E-03    -140.364E-03        -2.39042
              22               3     912.780E-03     450.584E-03     656.232E-03    -611.468E-03    -56.2389E-03        -2.47455
              22               4     908.987E-03     453.372E-03     599.360E-03    -646.401E-03    -142.284E-03        -2.38851
              23               1         3.63155         2.74531     686.855E-03    -613.418E-03    -439.729E-03        -2.15845
              23               2         3.59926         2.77369     407.461E-03    -690.552E-03    -579.427E-03        -2.01875
              23               3         1.07947     592.360E-03     601.217E-03    -579.315E-03    -457.427E-03        -2.14075
              23               4         1.04717     620.746E-03     321.823E-03    -656.448E-03    -597.125E-03        -2.00105
              24               1         4.01965         3.21695     491.137E-03    -367.185E-03    -873.156E-03        -1.59821
              24               2         3.95036         3.29668     719.211E-03     357.647E-03        -1.02666        -1.44470
              24               3         1.20696     842.851E-03     396.943E-03    -329.802E-03    -916.623E-03        -1.55475
              24               4         1.13767     922.584E-03     625.017E-03     395.030E-03        -1.07013        -1.40124
              25               1     943.253E-03        -1.32875         3.08267        -4.53734         1.10319        -3.42463
              25               2     480.913E-03    -851.181E-03         2.21149        -2.27548         1.08849        -3.40992
              25               3     760.578E-03        -1.46941         3.07460        -4.53280     829.052E-03        -3.15049
              25               4     298.238E-03    -991.837E-03         2.20342        -2.27094     814.346E-03        -3.13578
              26               1    -94.5923E-03    -880.430E-03         1.40445        -1.26075     794.829E-03        -3.57280
              26               2    -371.661E-03    -604.186E-03     444.604E-03    -376.223E-03     780.409E-03        -3.55838
              26               3    -590.904E-03        -1.33554         1.39306        -1.25978     633.446E-03        -3.41141
              26               4    -867.972E-03        -1.05930     433.214E-03    -375.253E-03     619.027E-03        -3.39699
              27               1    -354.510E-03    -277.573E-03    -7.99777E-03     50.6717E-03     720.074E-03        -3.28235
              27               2    -432.036E-03    -199.886E-03    -259.344E-03     316.700E-03     657.724E-03        -3.21999
              27               3        -1.28850        -1.03342    -43.9737E-03     68.1390E-03     674.804E-03        -3.23707
              27               4        -1.36603    -955.734E-03    -295.319E-03     334.167E-03     612.454E-03        -3.17472
              28               1    -586.504E-03    -290.949E-03    -442.839E-03     380.315E-03     513.942E-03        -3.07023
              28               2    -610.884E-03    -265.107E-03    -459.818E-03     530.743E-03     462.864E-03        -3.01916
              28               3        -1.85127        -1.40978    -477.783E-03     389.151E-03     499.293E-03        -3.05559
              28               4        -1.87565        -1.38393    -494.762E-03     539.580E-03     448.216E-03        -3.00451
              29               1    -771.003E-03    -341.662E-03    -566.574E-03     545.764E-03     266.903E-03        -2.83048
              29               2    -788.978E-03    -322.758E-03    -585.694E-03     649.575E-03     166.406E-03        -2.72999
              29               3        -2.45342        -1.73695    -626.499E-03     571.979E-03     256.147E-03        -2.81973
              29               4        -2.47140        -1.71804    -645.618E-03     675.790E-03     155.650E-03        -2.71923
              30               1    -913.455E-03    -451.259E-03    -655.980E-03     611.720E-03    -56.9181E-03        -2.47523
              30               2    -909.681E-03    -454.066E-03    -600.909E-03     644.852E-03    -142.963E-03        -2.38918
              30               3        -2.90501        -2.19698    -713.323E-03     628.129E-03    -54.9984E-03        -2.47715
              30               4        -2.90124        -2.19978    -658.253E-03     661.261E-03    -141.043E-03        -2.39110
              31               1        -1.07925    -592.141E-03    -602.369E-03     578.162E-03    -457.071E-03        -2.14039
              31               2        -1.04693    -620.500E-03    -320.487E-03     657.785E-03    -596.769E-03        -2.00069
              31               3        -3.63153        -2.74529    -688.009E-03     612.264E-03    -439.373E-03        -2.15809
              31               4        -3.59921        -2.77365    -406.126E-03     691.886E-03    -579.071E-03        -2.01839
              32               1        -1.20686    -842.754E-03    -395.158E-03     331.587E-03    -916.929E-03        -1.55505
              32               2        -1.13758    -922.500E-03    -624.506E-03    -394.520E-03        -1.07044        -1.40154
              32               3        -4.01941        -3.21671    -489.351E-03     368.972E-03    -873.462E-03        -1.59852
              32               4        -3.95013        -3.29646    -718.699E-03    -357.135E-03        -1.02697        -1.44501


  Minimum                               -4.01941        -3.29646        -6.13484        -4.53734        -1.07044        -3.65462
      At Element                              32              32              17              25              32              17

          Int Pt                               3               4               3               1               2               3
  Maximum                                4.01965         3.29668         3.08267          2.1188         1.10319        -1.40124
      At Element                              24              24              25              17              25              24

          Int Pt                               1               2               1               4               1               4


********************************************************************************
Field Output Report, written Fri Nov 18 19:58:36 2016

Source 1
---------

   ODB: F:/project ehsan/main model - square mesh 2/Job-1.odb
   Step: Step-1
   Frame: Increment      1: Step Time =    1.000

Loc 1 : Nodal values from source 1

Output sorted by column "Node Label".

Field Output reported at nodes for part: BEAM-1

            Node            U.U1            U.U2            U.U3
           Label          @Loc 1          @Loc 1          @Loc 1
-----------------------------------------------------------------
               1     37.0537E-03    -153.154E-03     148.556E-03
               2     8.77803E-36    -1.88916E-36     28.0552E-39
               3     6.87521E-36     711.994E-39    -711.890E-39
               4     9.53735E-03    -151.800E-03    -116.023E-03
               5    -18.1635E-03    -151.682E-03    -379.743E-03
               6    -2.90334E-36    -371.610E-39     5.57623E-39
               7    -6.87538E-36    -711.994E-39    -714.496E-39
               8    -9.70071E-03     151.800E-03    -115.030E-03
               9    -36.2786E-03     151.291E-03     149.137E-03
              10    -8.77806E-36     1.88916E-36     29.9777E-39
              11     2.90331E-36     371.601E-39     7.49877E-39
              12     18.9386E-03     153.545E-03    -379.161E-03
              13     36.1590E-03    -123.994E-03     138.936E-03
              14     34.3237E-03    -97.1802E-03     118.964E-03
              15     31.4268E-03    -71.8969E-03     90.2854E-03
              16     27.4007E-03    -49.1997E-03     62.6926E-03
              17     22.2144E-03    -29.9195E-03     39.4607E-03
              18     15.8608E-03    -14.8690E-03     21.0423E-03
              19     8.35846E-03    -5.31113E-03     6.82761E-03
              20     2.23849E-03    -3.39507E-03    -3.94777E-03
              21     4.26921E-03    -13.6270E-03    -12.1059E-03
              22     5.88258E-03    -28.8231E-03    -23.8930E-03
              23     7.20898E-03    -48.3359E-03    -38.6439E-03
              24     8.24184E-03    -71.2567E-03    -55.7353E-03
              25     8.98040E-03    -96.7113E-03    -74.6281E-03
              26     9.33059E-03    -124.015E-03    -94.5169E-03
              27    -17.9539E-03    -123.991E-03    -327.949E-03
              28    -17.2183E-03    -96.8475E-03    -267.553E-03
              29    -15.7975E-03    -71.3631E-03    -201.243E-03
              30    -13.8370E-03    -48.4917E-03    -139.327E-03
              31    -11.3088E-03    -29.0413E-03    -86.3222E-03
              32    -8.22629E-03    -13.7849E-03    -44.0998E-03
              33    -4.37693E-03    -3.86218E-03    -12.6097E-03
              34     228.843E-42             -0.    -244.721E-39
              35    -2.23852E-03     3.39507E-03    -3.94832E-03
              36    -4.26927E-03     13.6270E-03    -12.1054E-03
              37    -5.88242E-03     28.8231E-03    -23.8932E-03
              38    -7.20969E-03     48.3359E-03    -38.6432E-03
              39    -8.24052E-03     71.2567E-03    -55.7402E-03
              40    -8.97747E-03     96.7113E-03    -74.6119E-03
              41    -9.55313E-03     124.015E-03    -94.7735E-03
              42    -181.949E-06     7.70496E-15    -115.255E-03
              43    -35.9122E-03     124.231E-03     138.875E-03
              44    -34.3270E-03     97.2036E-03     118.706E-03
              45    -31.4275E-03     71.8937E-03     90.3207E-03
              46    -27.4004E-03     49.1998E-03     62.6894E-03
              47    -22.2145E-03     29.9196E-03     39.4730E-03
              48    -15.8608E-03     14.8690E-03     21.0356E-03
              49    -8.35847E-03     5.31114E-03     6.82977E-03
              50     4.37692E-03     3.86216E-03    -12.6075E-03
              51     8.22629E-03     13.7850E-03    -44.1065E-03
              52     11.3086E-03     29.0412E-03    -86.3099E-03
              53     13.8374E-03     48.4916E-03    -139.330E-03
              54     15.7967E-03     71.3664E-03    -201.207E-03
              55     17.2150E-03     96.8241E-03    -267.811E-03
              56     18.2007E-03     123.754E-03    -328.010E-03
              57    -173.917E-06     6.25227E-15    -94.6984E-03
              58    -8.88088E-06     4.06719E-15    -74.5531E-03
              59    -1.25219E-06     2.67021E-15    -55.6781E-03
              60     846.655E-09     1.95878E-15    -38.5523E-03
              61    -191.907E-09     1.16977E-15    -23.7841E-03
              62    -7.06154E-09     522.210E-18    -11.9772E-03
              63    -76.3944E-09     183.349E-18    -3.74214E-03


  Minimum           -36.2786E-03    -153.154E-03    -379.743E-03

         At Node               9               1               5
  Maximum            37.0537E-03     153.545E-03     149.137E-03

         At Node               1              12               9


